 Compiled for linux_x86_64_gfortran on Tue Jul 23 08:36:46 2013
 from source code version 17dc085fd1b9+ Castep61_branch 2013-03-13
 using intermediate optimisation, default FFTs and default LAPACK and BLAS.

 Atomic calculation performed for Ca: 1s2 2s2 2p6 3s2 3p6 4s2

 Converged in 54 iterations to an ae energy of -18512.579 eV

   | Pseudopotential Report - Date of generation 29-03-2015   |
   | Element: Ca Ionic charge: 10.00 Level of theory: PBE     |
   |               Reference Electronic Structure             |
   |         Orbital         Occupation         Energy        |
   |            3s              2.000           -1.731        |
   |            3p              6.000           -1.029        |
   |            4s              2.000           -0.138        |
   |                 Pseudopotential Definition               |
   |        Beta     l      e      Rc     scheme   norm       |
   |          1      0   -1.731   2.005     qc      0         |
   |          2      0   -0.138   2.005     qc      0         |
   |          3      1   -1.029   2.005     qc      0         |
   |          4      1    0.250   2.005     qc      0         |
   |          5      2    0.000   2.005     qc      0         |
   |          6      2    1.000   2.005     qc      0         |
   |         loc     3    0.000   1.601     pn      0         |
   | Augmentation charge Rinner = 1.401                       |
   | Partial core correction Rc = 1.401                       |
   | "3|1.6|2.0|1.4|7|9|10|30U:40U:31:32U=0U=1.0"             |
   |      Author: Chris J. Pickard, Cambridge University      |

 Pseudo atomic calculation performed for Ca 3s2 3p6 4s2

 Converged in 19 iterations to a total energy of -1001.1905 eV

 Calculation not parallelised.

 ************************************ Title ************************************

 ***************************** General Parameters ******************************

 output verbosity                               : normal  (1)
 write checkpoint data to                       : Ca.check
 type of calculation                            : Thermodynamics calculation
 stress calculation                             : off
 density difference calculation                 : off
 electron localisation func (ELF) calculation   : off
 Hirshfeld analysis                             : off
 unlimited duration calculation
 timing information                             : on
 write final potential to formatted file        : off
 write final density to formatted file          : off
 write BibTeX reference list                    : on

 output         length unit                     : A
 output           mass unit                     : amu
 output           time unit                     : ps
 output         charge unit                     : e
 output         energy unit                     : eV
 output          force unit                     : eV/A
 output       velocity unit                     : A/ps
 output       pressure unit                     : GPa
 output     inv_length unit                     : 1/A
 output      frequency unit                     : cm-1
 output force constant unit                     : eV/A**2
 output         volume unit                     : A**3
 output   IR intensity unit                     : (D/A)**2/amu
 output         dipole unit                     : D
 output         efield unit                     : eV/A/e
 output        entropy unit                     : J/mol/K

 wavefunctions paging                           : none
 data distribution                              : optimal for this architecture
 optimization strategy                          : maximize speed(+++)

 *********************** Exchange-Correlation Parameters ***********************

 using functional                               : Perdew Wang (1991)
 Divergence correction                          : off
 DFT+D: Semi-empirical dispersion correction    : off

 ************************* Pseudopotential Parameters **************************

 pseudopotential representation                 : reciprocal space
 <beta|phi> representation                      : reciprocal space

 **************************** Basis Set Parameters *****************************

 plane wave basis set cut-off                   :   500.0000   eV
 finite basis set correction                    : none

 **************************** Electronic Parameters ****************************

 number of  electrons                           :  20.00
 net charge of system                           :  0.000
 net spin   of system                           :  0.000
 number of  up  spins                           :  10.00
 number of down spins                           :  10.00
 treating system as non-spin-polarized
 number of bands                                :         14

 ********************* Electronic Minimization Parameters **********************

 Method: Treating system as metallic with density mixing treatment of electrons,
         and number of  SD  steps               :          1
         and number of  CG  steps               :          4

 total energy / atom convergence tol.           : 0.1000E-04   eV
 eigen-energy convergence tolerance             : 0.1000E-05   eV
 max force / atom convergence tol.              : ignored
 convergence tolerance window                   :          3   cycles
 max. number of SCF cycles                      :         30
 number of fixed-spin iterations                :         10
 smearing scheme                                : Gaussian
 smearing width                                 : 0.4000E-01   eV
 Fermi energy convergence tolerance             : 0.1000E-06   eV
 periodic dipole correction                     : NONE

 ************************** Density Mixing Parameters **************************

 density-mixing scheme                          : Broyden
 max. length of mixing history                  :          7
 charge density mixing amplitude                : 0.8000
 cut-off energy for mixing                      :  500.0       eV

 *********************** Population Analysis Parameters ************************

 Population analysis with cutoff                :  3.000       A

 ****************************** Phonon Parameters ******************************

 phonon calculation method                      : finite displacement
 finite displacement amplitude                  : 0.5292E-02   A
 fine phonon calculation method                 : supercell
 non-periodic force constant method             : Weighted cumulant sum
 LO/TO splitting term                           : not included
 acoustic phonon sum rule                       : correct D(q) in recip-space
 Born effective charges                         : not calculated
 Raman intensities                              : not calculated
 phonon k-points                                : use reduced set
 phonon DOS                                     : not calculated
 no timed backups

 ************************** Thermodynamics Parameters **************************
 Helmholtz free energy                          : calculated
 Initial temperature                            :  0.000       K
 Final temperature                              :  300.0       K
 Spacing between temperature values             :  3.000       K
 Number of temperature values                   :        102
 band convergence tolerance                     : 0.1000E-05   eV

                                      Unit Cell
        Real Lattice(A)                      Reciprocal Lattice(1/A)
   4.3854505   0.0000000   0.0000000        1.4327343  -0.0000000  -0.0000000
   0.0000000   4.3854505   0.0000000        0.0000000   1.4327343  -0.0000000
   0.0000000   0.0000000   4.3854505        0.0000000   0.0000000   1.4327343

                       Lattice parameters(A)       Cell Angles
                    a =    4.385451          alpha =   90.000000
                    b =    4.385451          beta  =   90.000000
                    c =    4.385451          gamma =   90.000000

                       Current cell volume =   84.341756       A**3

                                     Cell Contents
                         Total number of ions in cell =    2
                      Total number of species in cell =    1
                        Max number of any one species =    2

            x  Element    Atom        Fractional coordinates of atoms  x
            x            Number           u          v          w      x
            x  Ca           1         0.000000   0.000000   0.000000   x
            x  Ca           2         0.500000   0.500000   0.500000   x

                         No user defined ionic velocities

                                   Details of Species

                               Mass of species in AMU
                                    Ca   40.0780000

                          Electric Quadrupole Moment (Barn)
                                    Ca   -0.0408000 Isotope 43

                          Files used for pseudopotentials:
                                    Ca Pseudopotential generated on-the-fly

                              k-Points For BZ Sampling
                       MP grid size for SCF calculation is  4  4  4
                         Number of kpoints used =           4

             +  Number       Fractional coordinates        Weight  +
             +     1  -0.375000   0.125000  -0.375000   0.3750000  +
             +     2   0.125000  -0.375000  -0.125000   0.3750000  +
             +     3   0.125000  -0.125000  -0.125000   0.1250000  +
             +     4   0.375000   0.375000   0.375000   0.1250000  +

                               Symmetry and Constraints

                      Number of symmetry operations   =          48
                      Number of ionic constraints     =           3
                      Maximum deviation from symmetry = 0.537063E-15     ANG
               Point group of crystal =    32: Oh, m-3m, 4/m -3 2/m
           Set iprint > 1 for details on symmetry rotations/translations

                          Centre of mass is constrained
             Set iprint > 1 for details of linear ionic constraints

                         Number of cell constraints= 5
                         Cell constraints are:  1 1 1 0 0 0

                         External pressure/stress (GPa)
                          0.00000   0.00000   0.00000
                                    0.00000   0.00000
                                              0.00000

Final energy, E             =  -2007.477963448     eV
Final free energy (E-TS)    =  -2007.485854926     eV
(energies not corrected for finite basis set)

NB est. 0K energy (E-0.5TS)      =  -2007.481909187     eV

Writing model to Ca.check

              The requested supercell has been generated

[...]

                         External pressure/stress (GPa)
                          0.00000   0.00000   0.00000
                                    0.00000   0.00000
                                              0.00000
  | Requirements will fluctuate during execution and may exceed these estimates |
[...]
 + b       2 |    1  -1                                                       +
 +  q-pt=  106 (  0.175000  0.175000  0.325000)     0.0088495575              +
 +  Acoustic sum rule correction <  10.621813 cm-1 applied                    +
 +     N      Frequency irrep.                                                +
 +                (cm-1)                                                      +
 +     1    -171.192375   a                                                   +
 +     2     -99.198267   a                                                   +
 +     3     -80.171607   b                                                   +
 +     4      86.712586   b                                                   +
 +     5     244.930547   a                                                   +
 +     6     263.704625   a                                                   +
 +        Character table from group theory analysis of eigenvectors          +
 +                           Point Group =  32, Oh                            +
 +  Rep  Mul |    E   m                                                       +
 + a       4 |    1   1                                                       +
 + b       2 |    1  -1                                                       +
 +  q-pt=  107 (  0.150000  0.150000  0.350000)     0.0088495575              +
 +  Acoustic sum rule correction <  36.913277 cm-1 applied                    +
 +     N      Frequency irrep.                                                +
 +                (cm-1)                                                      +
 +     1    -164.813968   a                                                   +
 +     2    -109.743962   a                                                   +
 +     3     -87.950806   b                                                   +
 +     4     -12.179239   b                                                   +
 +     5     257.346139   a                                                   +
 +     6     270.681891   a                                                   +
 +        Character table from group theory analysis of eigenvectors          +
 +                           Point Group =  32, Oh                            +
 +  Rep  Mul |    E   m                                                       +
 + a       4 |    1   1                                                       +
 + b       2 |    1  -1                                                       +
 +  q-pt=  108 (  0.125000  0.125000  0.375000)     0.0088495575              +
 +  Acoustic sum rule correction <  11.747928 cm-1 applied                    +
 +     N      Frequency irrep.                                                +
 +                (cm-1)                                                      +
 +     1    -154.906705   a                                                   +
 +     2    -113.972623   a                                                   +
 +     3     -92.233464   b                                                   +
 +     4     -74.263678   b                                                   +
 +     5     269.416354   a                                                   +
 +     6     279.228768   a                                                   +
 +        Character table from group theory analysis of eigenvectors          +
 +                           Point Group =  32, Oh                            +
 +  Rep  Mul |    E   m                                                       +
 + a       4 |    1   1                                                       +
 + b       2 |    1  -1                                                       +
 +  q-pt=  109 (  0.100000  0.100000  0.400000)     0.0088495575              +
 +  Acoustic sum rule correction <   9.892521 cm-1 applied                    +
 +     N      Frequency irrep.                                                +
 +                (cm-1)                                                      +
 +     1    -142.051774   a                                                   +
 +     2    -112.702702   a                                                   +
 +     3     -93.963771   b                                                   +
 +     4     -92.965586   b                                                   +
 +     5     280.828528   a                                                   +
 +     6     288.176320   a                                                   +
 +        Character table from group theory analysis of eigenvectors          +
 +                           Point Group =  32, Oh                            +
 +  Rep  Mul |    E   m                                                       +
 + a       4 |    1   1                                                       +
 + b       2 |    1  -1                                                       +
 +  q-pt=  110 (  0.075000  0.075000  0.425000)     0.0088495575              +
 +  Acoustic sum rule correction <   7.583390 cm-1 applied                    +
 +     N      Frequency irrep.                                                +
 +                (cm-1)                                                      +
 +     1    -127.508171   a                                                   +
 +     2    -107.551050   a                                                   +
 +     3    -100.527252   b                                                   +
 +     4     -93.347588   b                                                   +
 +     5     290.984786   a                                                   +
 +     6     296.368927   a                                                   +
 +        Character table from group theory analysis of eigenvectors          +
 +                           Point Group =  32, Oh                            +
 +  Rep  Mul |    E   m                                                       +
 + a       4 |    1   1                                                       +
 + b       2 |    1  -1                                                       +
 +  q-pt=  111 (  0.050000  0.050000  0.450000)     0.0088495575              +
 +  Acoustic sum rule correction <   7.838323 cm-1 applied                    +
 +     N      Frequency irrep.                                                +
 +                (cm-1)                                                      +
 +     1    -113.248943   a                                                   +
 +     2    -101.316668   b                                                   +
 +     3    -100.926608   a                                                   +
 +     4     -92.897152   b                                                   +
 +     5     299.176839   a                                                   +
 +     6     302.777633   a                                                   +
 +        Character table from group theory analysis of eigenvectors          +
 +                           Point Group =  32, Oh                            +
 +  Rep  Mul |    E   m                                                       +
 + a       4 |    1   1                                                       +
 + b       2 |    1  -1                                                       +
 +  q-pt=  112 (  0.025000  0.025000  0.475000)     0.0088495575              +
 +  Acoustic sum rule correction <   9.062411 cm-1 applied                    +
 +     N      Frequency irrep.                                                +
 +                (cm-1)                                                      +
 +     1    -101.851372   a                                                   +
 +     2     -98.929826   b                                                   +
 +     3     -95.937245   a                                                   +
 +     4     -93.507762   b                                                   +
 +     5     304.746203   a                                                   +
 +     6     306.609494   a                                                   +
 +        Character table from group theory analysis of eigenvectors          +
 +                           Point Group =  32, Oh                            +
 +  Rep  Mul |    E   m                                                       +
 + a       4 |    1   1                                                       +
 + b       2 |    1  -1                                                       +
 +  q-pt=  113 (  0.000000  0.000000  0.500000)     0.0088495575              +
 +  Acoustic sum rule correction <  11.196641 cm-1 applied                    +
 +     N      Frequency irrep.                                                +
 +                (cm-1)                                                      +
 +     1     -96.176286   a                                                   +
 +     2     -96.176286   a                                                   +
 +     3     -95.317799   b                                                   +
 +     4     -95.317799   b                                                   +
 +     5     307.041757   c                                                   +
 +     6     307.558802   d                                                   +
 +        Character table from group theory analysis of eigenvectors          +
 +                           Point Group =  32, Oh                            +
 +  Rep  Mul |    E   2   2   2   4   I   m   m   m  -4                       +
 + a       1 |    2   0  -2   0   0  -2   0   2   0   0                       +
 + b       1 |    2   0  -2   0   0   2   0  -2   0   0                       +
 + c       1 |    1  -1   1  -1   1  -1   1  -1   1  -1                       +
 + d       1 |    1   1   1   1   1   1   1   1   1   1                       +

                             Thermodynamics

            Zero-point energy =         0.045244  eV
       T(K)        E(eV)           F(eV)         S(J/mol/K)      Cv(J/mol/K)
       0.0        0.045244        0.045244           0.000           0.000
       3.0        0.045244        0.045243           0.017           0.084
       5.9        0.045254        0.045240           0.225           0.637
       8.9        0.045285        0.045228           0.619           1.353
      11.9        0.045337        0.045201           1.099           1.997
      14.9        0.045407        0.045160           1.603           2.520
      17.8        0.045491        0.045103           2.102           2.954
      20.8        0.045588        0.045031           2.586           3.335
      23.8        0.045696        0.044944           3.055           3.689
      26.7        0.045815        0.044843           3.509           4.031
      29.7        0.045944        0.044728           3.952           4.373
      32.7        0.046084        0.044599           4.385           4.719
      35.6        0.046235        0.044458           4.810           5.075
      38.6        0.046397        0.044303           5.231           5.443
      41.6        0.046570        0.044136           5.648           5.825
      44.6        0.046756        0.043955           6.064           6.221
      47.5        0.046953        0.043762           6.478           6.632
      50.5        0.047164        0.043557           6.893           7.058
      53.5        0.047388        0.043338           7.309           7.498
      56.4        0.047626        0.043107           7.726           7.950
      59.4        0.047878        0.042862           8.146           8.414
      62.4        0.048144        0.042605           8.568           8.886
      65.3        0.048425        0.042335           8.992           9.366
      68.3        0.048721        0.042051           9.419           9.851
      71.3        0.049031        0.041755           9.849          10.338
      74.3        0.049357        0.041445          10.281          10.826
      77.2        0.049698        0.041122          10.715          11.313
      80.2        0.050054        0.040785          11.151          11.796
      83.2        0.050424        0.040435          11.588          12.276
      86.1        0.050809        0.040072          12.027          12.749
      89.1        0.051209        0.039695          12.467          13.215
      92.1        0.051623        0.039304          12.908          13.673
      95.0        0.052051        0.038900          13.349          14.121
      98.0        0.052492        0.038482          13.791          14.559
     101.0        0.052947        0.038051          14.232          14.987
     104.0        0.053415        0.037606          14.672          15.405
     106.9        0.053895        0.037147          15.112          15.810
     109.9        0.054388        0.036676          15.551          16.205
     112.9        0.054893        0.036190          15.988          16.587
     115.8        0.055409        0.035691          16.423          16.959
     118.8        0.055937        0.035179          16.857          17.318
     121.8        0.056476        0.034653          17.289          17.666
     124.8        0.057025        0.034114          17.719          18.003
     127.7        0.057584        0.033562          18.147          18.329
     130.7        0.058153        0.032997          18.572          18.643
     133.7        0.058732        0.032419          18.994          18.947
     136.6        0.059319        0.031828          19.414          19.241
     139.6        0.059916        0.031224          19.830          19.524
     142.6        0.060521        0.030607          20.244          19.798
     145.5        0.061135        0.029977          20.655          20.062
     148.5        0.061757        0.029335          21.063          20.316
     151.5        0.062386        0.028680          21.468          20.562
     154.5        0.063022        0.028013          21.870          20.799
     157.4        0.063666        0.027334          22.268          21.028
     160.4        0.064317        0.026642          22.663          21.249
     163.4        0.064975        0.025939          23.055          21.462
     166.3        0.065638        0.025223          23.443          21.667
     169.3        0.066309        0.024495          23.829          21.866
     172.3        0.066985        0.023756          24.211          22.057
     175.2        0.067667        0.023005          24.589          22.242
[...]
     258.4        0.088472       -0.002382          33.922          25.538
     261.4        0.089259       -0.003430          34.215          25.610
     264.4        0.090049       -0.004488          34.504          25.680
     267.3        0.090840       -0.005555          34.792          25.749
     270.3        0.091634       -0.006630          35.077          25.815
     273.3        0.092430       -0.007715          35.359          25.879
     276.2        0.093227       -0.008807          35.639          25.942
     279.2        0.094027       -0.009909          35.917          26.003
     282.2        0.094828       -0.011019          36.192          26.062
     285.1        0.095632       -0.012137          36.466          26.120
     288.1        0.096437       -0.013264          36.737          26.176
     291.1        0.097243       -0.014399          37.005          26.231
     294.1        0.098052       -0.015542          37.272          26.284
     297.0        0.098862       -0.016694          37.536          26.336
     300.0        0.099673       -0.017853          37.799          26.386

 ***************** Symmetrised Forces *****************
 *            Cartesian components (eV/A)             *
 *                   x            y            z      *
 * Ca        1      0.00000      0.00000      0.00000 *
 * Ca        2      0.00000      0.00000      0.00000 *

 Pseudo atomic calculation performed for Ca 3s2 3p6 4s2

 Converged in 19 iterations to a total energy of -1001.1905 eV

Charge spilling parameter for spin component 1 = 0.14%

     Atomic Populations (Mulliken)
Species   Ion     s      p      d      f     Total  Charge (e)
  Ca       1     2.33   5.88   1.79   0.00  10.00     0.00
  Ca       2     2.33   5.88   1.79   0.00  10.00    -0.00

            Bond              Population      Length (A)
         Ca 1 -- Ca 2             -0.89        2.58548

Writing model to Ca.check

Writing analysis data to Ca.castep_bin

 A BibTeX formatted list of references used in this run has been written to
 Ca.bib

Initialisation time =      8.09 s
Calculation time    =    147.85 s
Finalisation time   =      0.53 s
Total time          =    156.47 s