 Compiled for linux_x86_64_gfortran on Tue Jul 23 08:36:46 2013
 from source code version 17dc085fd1b9+ Castep61_branch 2013-03-13
 using intermediate optimisation, default FFTs and default LAPACK and BLAS.

 Atomic calculation performed for Ca: 1s2 2s2 2p6 3s2 3p6 4s2

 Converged in 54 iterations to an ae energy of -18512.579 eV

   | Pseudopotential Report - Date of generation 25-03-2015   |
   | Element: Ca Ionic charge: 10.00 Level of theory: PBE     |
   |               Reference Electronic Structure             |
   |         Orbital         Occupation         Energy        |
   |            3s              2.000           -1.731        |
   |            3p              6.000           -1.029        |
   |            4s              2.000           -0.138        |
   |                 Pseudopotential Definition               |
   |        Beta     l      e      Rc     scheme   norm       |
   |          1      0   -1.731   2.005     qc      0         |
   |          2      0   -0.138   2.005     qc      0         |
   |          3      1   -1.029   2.005     qc      0         |
   |          4      1    0.250   2.005     qc      0         |
   |          5      2    0.000   2.005     qc      0         |
   |          6      2    1.000   2.005     qc      0         |
   |         loc     3    0.000   1.601     pn      0         |
   | Augmentation charge Rinner = 1.401                       |
   | Partial core correction Rc = 1.401                       |
   | "3|1.6|2.0|1.4|7|9|10|30U:40U:31:32U=0U=1.0"             |
   |      Author: Chris J. Pickard, Cambridge University      |

 Pseudo atomic calculation performed for Ca 3s2 3p6 4s2

 Converged in 19 iterations to a total energy of -1001.2130 eV

 Calculation not parallelised.

 ************************************ Title ************************************

 ***************************** General Parameters ******************************

 output verbosity                               : normal  (1)
 write checkpoint data to                       : Ca.check
 type of calculation                            : Thermodynamics calculation
 stress calculation                             : off
 density difference calculation                 : off
 electron localisation func (ELF) calculation   : off
 Hirshfeld analysis                             : off
 unlimited duration calculation
 timing information                             : on
 write final potential to formatted file        : off
 write final density to formatted file          : off
 write BibTeX reference list                    : on

 output         length unit                     : A
 output           mass unit                     : amu
 output           time unit                     : ps
 output         charge unit                     : e
 output         energy unit                     : eV
 output          force unit                     : eV/A
 output       velocity unit                     : A/ps
 output       pressure unit                     : GPa
 output     inv_length unit                     : 1/A
 output      frequency unit                     : cm-1
 output force constant unit                     : eV/A**2
 output         volume unit                     : A**3
 output   IR intensity unit                     : (D/A)**2/amu
 output         dipole unit                     : D
 output         efield unit                     : eV/A/e
 output        entropy unit                     : J/mol/K

 wavefunctions paging                           : none
 data distribution                              : optimal for this architecture
 optimization strategy                          : maximize speed(+++)

 *********************** Exchange-Correlation Parameters ***********************

 using functional                               : Perdew Wang (1991)
 Divergence correction                          : off
 DFT+D: Semi-empirical dispersion correction    : off

 ************************* Pseudopotential Parameters **************************

 pseudopotential representation                 : reciprocal space
 <beta|phi> representation                      : reciprocal space

 **************************** Basis Set Parameters *****************************

 plane wave basis set cut-off                   :   700.0000   eV
 finite basis set correction                    : none

 **************************** Electronic Parameters ****************************

 number of  electrons                           :  40.00
 net charge of system                           :  0.000
 net spin   of system                           :  0.000
 number of  up  spins                           :  20.00
 number of down spins                           :  20.00
 treating system as non-spin-polarized
 number of bands                                :         24

 ********************* Electronic Minimization Parameters **********************

 Method: Treating system as metallic with density mixing treatment of electrons,
         and number of  SD  steps               :          1
         and number of  CG  steps               :          4

 total energy / atom convergence tol.           : 0.1000E-04   eV
 eigen-energy convergence tolerance             : 0.1000E-05   eV
 max force / atom convergence tol.              : ignored
 convergence tolerance window                   :          3   cycles
 max. number of SCF cycles                      :         30
 number of fixed-spin iterations                :         10
 smearing scheme                                : Gaussian
 smearing width                                 : 0.4000E-01   eV
 Fermi energy convergence tolerance             : 0.1000E-06   eV
 periodic dipole correction                     : NONE

 ************************** Density Mixing Parameters **************************

 density-mixing scheme                          : Broyden
 max. length of mixing history                  :          7
 charge density mixing amplitude                : 0.8000
 cut-off energy for mixing                      :  700.0       eV

 *********************** Population Analysis Parameters ************************

 Population analysis with cutoff                :  3.000       A

 ****************************** Phonon Parameters ******************************

 phonon calculation method                      : finite displacement
 finite displacement amplitude                  : 0.5292E-02   A
 fine phonon calculation method                 : supercell
 non-periodic force constant method             : Weighted cumulant sum
 LO/TO splitting term                           : not included
 acoustic phonon sum rule                       : correct D(q) in recip-space
 Born effective charges                         : not calculated
 Raman intensities                              : not calculated
 phonon k-points                                : use reduced set
 phonon DOS                                     : not calculated
 no timed backups

 ************************** Thermodynamics Parameters **************************
 Helmholtz free energy                          : calculated
 Initial temperature                            :  0.000       K
 Final temperature                              :  300.0       K
 Spacing between temperature values             :  3.000       K
 Number of temperature values                   :        102
 band convergence tolerance                     : 0.1000E-05   eV

                                      Unit Cell
        Real Lattice(A)                      Reciprocal Lattice(1/A)
   5.5151340   0.0000000   0.0000000        1.1392625  -0.0000000  -0.0000000
   0.0000000   5.5151340   0.0000000        0.0000000   1.1392625  -0.0000000
   0.0000000   0.0000000   5.5151340        0.0000000   0.0000000   1.1392625

                       Lattice parameters(A)       Cell Angles
                    a =    5.515134          alpha =   90.000000
                    b =    5.515134          beta  =   90.000000
                    c =    5.515134          gamma =   90.000000

                       Current cell volume =  167.752193       A**3

                                     Cell Contents
                         Total number of ions in cell =    4
                      Total number of species in cell =    1
                        Max number of any one species =    4

            x  Element    Atom        Fractional coordinates of atoms  x
            x            Number           u          v          w      x
            x  Ca           1         0.000000   0.000000   0.000000   x
            x  Ca           2         0.000000   0.500000   0.500000   x
            x  Ca           3         0.500000   0.000000   0.500000   x
            x  Ca           4         0.500000   0.500000   0.000000   x

                         No user defined ionic velocities

                                   Details of Species

                               Mass of species in AMU
                                    Ca   40.0780000

                          Electric Quadrupole Moment (Barn)
                                    Ca   -0.0408000 Isotope 43

                          Files used for pseudopotentials:
                                    Ca Pseudopotential generated on-the-fly

                              k-Points For BZ Sampling
                       MP grid size for SCF calculation is  8  8  8
                         Number of kpoints used =          20

             +  Number       Fractional coordinates        Weight  +
             +     1  -0.437500  -0.437500  -0.437500   0.0156250  +
             +     2  -0.437500  -0.437500  -0.062500   0.0468750  +
             +     3  -0.437500  -0.187500  -0.312500   0.0937500  +
             +     4  -0.312500  -0.312500  -0.312500   0.0156250  +
             +     5  -0.312500  -0.312500  -0.187500   0.0468750  +
             +     6  -0.312500  -0.312500  -0.062500   0.0468750  +
             +     7  -0.187500  -0.187500  -0.437500   0.0468750  +
             +     8  -0.187500  -0.187500  -0.312500   0.0468750  +
             +     9  -0.187500  -0.187500  -0.187500   0.0156250  +
             +    10  -0.187500  -0.187500  -0.062500   0.0468750  +
             +    11   0.062500  -0.437500  -0.187500   0.0937500  +
             +    12   0.062500  -0.437500  -0.062500   0.0468750  +
             +    13   0.062500  -0.312500  -0.187500   0.0937500  +
             +    14   0.062500  -0.312500  -0.062500   0.0468750  +
             +    15   0.062500  -0.187500  -0.062500   0.0468750  +
             +    16   0.062500   0.062500   0.062500   0.0156250  +
             +    17   0.062500   0.312500  -0.437500   0.0937500  +
             +    18   0.312500  -0.312500  -0.437500   0.0468750  +
             +    19   0.312500   0.437500   0.437500   0.0468750  +
             +    20   0.437500  -0.187500  -0.437500   0.0468750  +

                               Symmetry and Constraints

                      Number of symmetry operations   =          48
                      Number of ionic constraints     =           3
                      Maximum deviation from symmetry = 0.675409E-15     ANG
[...]
 +    12    1032.979844   a                                                   +
 +        Character table from group theory analysis of eigenvectors          +
 +                           Point Group =  32, Oh                            +
 +  Rep  Mul |    E   m                                                       +
 + a       7 |    1   1                                                       +
 + b       5 |    1  -1                                                       +
 +  q-pt=  149 (  0.125000  0.562500  0.562500)     0.0065359477              +
 +  Acoustic sum rule correction <  24.088935 cm-1 applied                    +
 +     N      Frequency irrep.                                                +
 +                (cm-1)                                                      +
 +     1   -1277.542079   a                                                   +
 +     2   -1250.532171   a                                                   +
 +     3   -1234.978870   b                                                   +
 +     4   -1231.452589   a                                                   +
 +     5    -438.009984   b                                                   +
 +     6    -310.349658   b                                                   +
 +     7    -273.994174   a                                                   +
 +     8    -246.125735   b                                                   +
 +     9     724.997334   a                                                   +
 +    10     834.441046   b                                                   +
 +    11     845.051143   a                                                   +
 +    12     969.823380   a                                                   +
 +        Character table from group theory analysis of eigenvectors          +
 +                           Point Group =  32, Oh                            +
 +  Rep  Mul |    E   m                                                       +
 + a       7 |    1   1                                                       +
 + b       5 |    1  -1                                                       +
 +  q-pt=  150 (  0.093750  0.546875  0.546875)     0.0065359477              +
 +  Acoustic sum rule correction <  15.418566 cm-1 applied                    +
 +     N      Frequency irrep.                                                +
 +                (cm-1)                                                      +
 +     1   -1381.569960   a                                                   +
 +     2   -1364.738476   a                                                   +
 +     3   -1351.495708   b                                                   +
 +     4   -1348.835888   a                                                   +
 +     5    -508.115692   b                                                   +
 +     6    -435.209388   b                                                   +
 +     7    -424.088432   a                                                   +
 +     8    -398.476070   b                                                   +
 +     9     694.297818   a                                                   +
 +    10     787.503997   b                                                   +
 +    11     797.903037   a                                                   +
 +    12     899.531156   a                                                   +
 +        Character table from group theory analysis of eigenvectors          +
 +                           Point Group =  32, Oh                            +
 +  Rep  Mul |    E   m                                                       +
 + a       7 |    1   1                                                       +
 + b       5 |    1  -1                                                       +
 +  q-pt=  151 (  0.062500  0.531250  0.531250)     0.0065359477              +
 +  Acoustic sum rule correction <   9.521232 cm-1 applied                    +
 +     N      Frequency irrep.                                                +
 +                (cm-1)                                                      +
 +     1   -1458.476274   a                                                   +
 +     2   -1447.708597   a                                                   +
 +     3   -1436.893557   b                                                   +
 +     4   -1435.330261   a                                                   +
 +     5    -559.004348   b                                                   +
 +     6    -520.720302   b                                                   +
 +     7    -515.010646   a                                                   +
 +     8    -487.486512   b                                                   +
 +     9     678.623450   a                                                   +
 +    10     746.699936   b                                                   +
 +    11     757.001278   a                                                   +
 +    12     828.414281   a                                                   +
 +        Character table from group theory analysis of eigenvectors          +
 +                           Point Group =  32, Oh                            +
 +  Rep  Mul |    E   m                                                       +
 + a       7 |    1   1                                                       +
 + b       5 |    1  -1                                                       +
 +  q-pt=  152 (  0.031250  0.515625  0.515625)     0.0065359477              +
 +  Acoustic sum rule correction <   9.605772 cm-1 applied                    +
 +     N      Frequency irrep.                                                +
 +                (cm-1)                                                      +
 +     1   -1506.226245   a                                                   +
 +     2   -1496.515203   a                                                   +
 +     3   -1489.303855   a                                                   +
 +     4   -1489.003930   b                                                   +
 +     5    -588.200593   b                                                   +
 +     6    -571.997293   b                                                   +
 +     7    -566.575295   a                                                   +
 +     8    -538.895933   b                                                   +
 +     9     684.100962   a                                                   +
 +    10     718.551654   b                                                   +
 +    11     728.833469   a                                                   +
 +    12     764.012129   a                                                   +
 +        Character table from group theory analysis of eigenvectors          +
 +                           Point Group =  32, Oh                            +
 +  Rep  Mul |    E   m                                                       +
 + a       7 |    1   1                                                       +
 + b       5 |    1  -1                                                       +
 +  q-pt=  153 (  0.000000  0.500000  0.500000)     0.0065359477              +
 +  Acoustic sum rule correction <  19.803496 cm-1 applied                    +
 +     N      Frequency irrep.                                                +
 +                (cm-1)                                                      +
 +     1   -1522.179443   a                                                   +
 +     2   -1509.223913   b                                                   +
 +     3   -1508.901270   c                                                   +
 +     4   -1508.901270   c                                                   +
 +     5    -589.845360   d                                                   +
 +     6    -589.550244   c                                                   +
 +     7    -589.550244   c                                                   +
 +     8    -557.369770   e                                                   +
 +     9     713.507778   f                                                   +
 +    10     713.507778   f                                                   +
 +    11     713.684412   g                                                   +
 +    12     713.797373   h                                                   +
 +        Character table from group theory analysis of eigenvectors          +
 +                           Point Group =  32, Oh                            +
 +  Rep  Mul |    E   2   2   2   4   I   m   m   m  -4                       +
 + a       1 |    1   1   1   1   1   1   1   1   1   1                       +
 + b       1 |    1   1  -1   1  -1   1   1  -1   1  -1                       +
 + c       2 |    2  -2   0   0   0  -2   2   0   0   0                       +
 + d       1 |    1   1  -1  -1   1   1   1  -1  -1   1                       +
 + e       1 |    1   1   1  -1  -1   1   1   1  -1  -1                       +
 + f       1 |    2  -2   0   0   0   2  -2   0   0   0                       +
 + g       1 |    1   1  -1  -1   1  -1  -1   1   1  -1                       +
 + h       1 |    1   1   1  -1  -1  -1  -1  -1   1   1                       +

                             Thermodynamics

            Zero-point energy =         0.460183  eV
       T(K)        E(eV)           F(eV)         S(J/mol/K)      Cv(J/mol/K)
       0.0        0.460183        0.460183           0.000           0.000
       3.0        0.460183        0.460183           0.000           0.000
       5.9        0.460183        0.460183           0.001           0.007
       8.9        0.460184        0.460183           0.010           0.041
      11.9        0.460186        0.460182           0.028           0.094
      14.9        0.460190        0.460181           0.056           0.158
      17.8        0.460195        0.460179           0.091           0.231
      20.8        0.460204        0.460175           0.133           0.314
      23.8        0.460215        0.460170           0.180           0.407
      26.7        0.460229        0.460164           0.234           0.511
      29.7        0.460246        0.460156           0.294           0.623
      32.7        0.460267        0.460146           0.359           0.744
      35.6        0.460292        0.460134           0.429           0.871
      38.6        0.460321        0.460119           0.504           1.004
      41.6        0.460354        0.460103           0.583           1.142
      44.6        0.460391        0.460084           0.667           1.285
      47.5        0.460433        0.460062           0.755           1.433
      50.5        0.460480        0.460037           0.846           1.584
      53.5        0.460531        0.460010           0.941           1.741
      56.4        0.460587        0.459979           1.039           1.902
      59.4        0.460648        0.459946           1.141           2.069
      62.4        0.460714        0.459909           1.246           2.242
      65.3        0.460786        0.459869           1.355           2.422
      68.3        0.460864        0.459825           1.466           2.608
      71.3        0.460947        0.459778           1.581           2.801
      74.3        0.461036        0.459728           1.700           3.003
      77.2        0.461132        0.459674           1.822           3.212
      80.2        0.461234        0.459616           1.947           3.430
      83.2        0.461343        0.459554           2.076           3.657
      86.1        0.461459        0.459488           2.208           3.893
      89.1        0.461583        0.459418           2.344           4.139
      92.1        0.461714        0.459344           2.484           4.394
      95.0        0.461854        0.459265           2.628           4.659
      98.0        0.462001        0.459182           2.775           4.933
     101.0        0.462157        0.459094           2.927           5.217
     104.0        0.462323        0.459001           3.082           5.511
     106.9        0.462497        0.458904           3.242           5.814
     109.9        0.462681        0.458802           3.405           6.126
     112.9        0.462874        0.458694           3.573           6.447
     115.8        0.463078        0.458582           3.745           6.777
     118.8        0.463291        0.458464           3.920           7.115
     121.8        0.463516        0.458340           4.100           7.462
     124.8        0.463751        0.458211           4.284           7.817
     127.7        0.463997        0.458077           4.473           8.179
     130.7        0.464255        0.457936           4.665           8.548
     133.7        0.464523        0.457789           4.861           8.925
     136.6        0.464804        0.457637           5.061           9.307
     139.6        0.465097        0.457478           5.266           9.696
     142.6        0.465401        0.457312           5.474          10.091
     145.5        0.465718        0.457140           5.686          10.491
     148.5        0.466047        0.456962           5.902          10.895
     151.5        0.466389        0.456777           6.122          11.305
     154.5        0.466743        0.456585           6.346          11.718
     157.4        0.467110        0.456386           6.573          12.136
     160.4        0.467490        0.456180           6.803          12.557
     163.4        0.467883        0.455967           7.038          12.981
     166.3        0.468290        0.455747           7.275          13.407
     169.3        0.468709        0.455519           7.517          13.836
     172.3        0.469142        0.455284           7.761          14.268
     175.2        0.469587        0.455042           8.008          14.701
[...]
     258.4        0.487479        0.444843          15.919          26.640
     261.4        0.488306        0.444348          16.226          27.039
     264.4        0.489144        0.443844          16.534          27.435
     267.3        0.489995        0.443330          16.843          27.828
     270.3        0.490857        0.442807          17.152          28.218
     273.3        0.491732        0.442274          17.463          28.606
     276.2        0.492619        0.441732          17.774          28.991
     279.2        0.493517        0.441180          18.086          29.373
     282.2        0.494427        0.440618          18.399          29.752
     285.1        0.495349        0.440047          18.712          30.128
     288.1        0.496282        0.439466          19.027          30.501
     291.1        0.497227        0.438875          19.341          30.871
     294.1        0.498183        0.438275          19.657          31.238
     297.0        0.499150        0.437665          19.972          31.602
     300.0        0.500128        0.437045          20.289          31.963

 ***************** Symmetrised Forces *****************
 *            Cartesian components (eV/A)             *
 *                   x            y            z      *
 * Ca        1      0.00000      0.00000      0.00000 *
 * Ca        2      0.00000      0.00000      0.00000 *
 * Ca        3      0.00000      0.00000      0.00000 *
 * Ca        4      0.00000      0.00000      0.00000 *

 Pseudo atomic calculation performed for Ca 3s2 3p6 4s2

 Converged in 19 iterations to a total energy of -1001.2130 eV

Charge spilling parameter for spin component 1 = 0.45%

     Atomic Populations (Mulliken)
Species   Ion     s      p      d      f     Total  Charge (e)
  Ca       1     1.71   5.27   3.02   0.00  10.00    -0.00
  Ca       2     1.71   5.27   3.02   0.00  10.00     0.00
  Ca       3     1.71   5.27   3.02   0.00  10.00     0.00
  Ca       4     1.71   5.27   3.02   0.00  10.00     0.00

            Bond              Population      Length (A)
         Ca 3 -- Ca 4           -193.35        1.77847
         Ca 2 -- Ca 4           -193.35        1.77847
         Ca 2 -- Ca 3           -193.35        1.77847
         Ca 1 -- Ca 4           -193.35        1.77847
         Ca 1 -- Ca 3           -193.35        1.77847
         Ca 1 -- Ca 2           -193.35        1.77847

Writing model to Ca.check

Writing analysis data to Ca.castep_bin

 A BibTeX formatted list of references used in this run has been written to
 Ca.bib

Initialisation time =      8.10 s
Calculation time    =    964.89 s
Finalisation time   =      0.59 s
Total time          =    973.58 s