 Compiled for linux_x86_64_gfortran on Tue Jul 23 08:36:46 2013
 from source code version 17dc085fd1b9+ Castep61_branch 2013-03-13
 using intermediate optimisation, default FFTs and default LAPACK and BLAS.

 Atomic calculation performed for Ca: 1s2 2s2 2p6 3s2 3p6 4s2

 Converged in 54 iterations to an ae energy of -18512.579 eV

   | Pseudopotential Report - Date of generation 30-03-2015   |
   | Element: Ca Ionic charge: 10.00 Level of theory: PBE     |
   |               Reference Electronic Structure             |
   |         Orbital         Occupation         Energy        |
   |            3s              2.000           -1.731        |
   |            3p              6.000           -1.029        |
   |            4s              2.000           -0.138        |
   |                 Pseudopotential Definition               |
   |        Beta     l      e      Rc     scheme   norm       |
   |          1      0   -1.731   2.005     qc      0         |
   |          2      0   -0.138   2.005     qc      0         |
   |          3      1   -1.029   2.005     qc      0         |
   |          4      1    0.250   2.005     qc      0         |
   |          5      2    0.000   2.005     qc      0         |
   |          6      2    1.000   2.005     qc      0         |
   |         loc     3    0.000   1.601     pn      0         |
   | Augmentation charge Rinner = 1.401                       |
   | Partial core correction Rc = 1.401                       |
   | "3|1.6|2.0|1.4|7|9|10|30U:40U:31:32U=0U=1.0"             |
   |      Author: Chris J. Pickard, Cambridge University      |

 Pseudo atomic calculation performed for Ca 3s2 3p6 4s2

 Converged in 19 iterations to a total energy of -1001.2130 eV

 Calculation not parallelised.

 ************************************ Title ************************************

 ***************************** General Parameters ******************************

 output verbosity                               : normal  (1)
 write checkpoint data to                       : Ca.check
 type of calculation                            : single point energy
 stress calculation                             : off
 density difference calculation                 : off
 electron localisation func (ELF) calculation   : off
 Hirshfeld analysis                             : off
 unlimited duration calculation
 timing information                             : on
 write final potential to formatted file        : off
 write final density to formatted file          : off
 write BibTeX reference list                    : on

 output         length unit                     : A
 output           mass unit                     : amu
 output           time unit                     : ps
 output         charge unit                     : e
 output         energy unit                     : eV
 output          force unit                     : eV/A
 output       velocity unit                     : A/ps
 output       pressure unit                     : GPa
 output     inv_length unit                     : 1/A
 output      frequency unit                     : cm-1
 output force constant unit                     : eV/A**2
 output         volume unit                     : A**3
 output   IR intensity unit                     : (D/A)**2/amu
 output         dipole unit                     : D
 output         efield unit                     : eV/A/e
 output        entropy unit                     : J/mol/K

 wavefunctions paging                           : none
 data distribution                              : optimal for this architecture
 optimization strategy                          : maximize speed(+++)

 *********************** Exchange-Correlation Parameters ***********************

 using functional                               : Perdew Wang (1991)
 Divergence correction                          : off
 DFT+D: Semi-empirical dispersion correction    : off

 ************************* Pseudopotential Parameters **************************

 pseudopotential representation                 : reciprocal space
 <beta|phi> representation                      : reciprocal space

 **************************** Basis Set Parameters *****************************

 plane wave basis set cut-off                   :   700.0000   eV
 finite basis set correction                    : none

 **************************** Electronic Parameters ****************************

 number of  electrons                           :  20.00
 net charge of system                           :  0.000
 net spin   of system                           :  0.000
 number of  up  spins                           :  10.00
 number of down spins                           :  10.00
 treating system as non-spin-polarized
 number of bands                                :         14

 ********************* Electronic Minimization Parameters **********************

 Method: Treating system as metallic with density mixing treatment of electrons,
         and number of  SD  steps               :          1
         and number of  CG  steps               :          4

 total energy / atom convergence tol.           : 0.1000E-04   eV
 eigen-energy convergence tolerance             : 0.1000E-05   eV
 max force / atom convergence tol.              : ignored
 convergence tolerance window                   :          3   cycles
 max. number of SCF cycles                      :         30
 number of fixed-spin iterations                :         10
 smearing scheme                                : Gaussian
 smearing width                                 : 0.4000E-01   eV
 Fermi energy convergence tolerance             : 0.1000E-06   eV
 periodic dipole correction                     : NONE

 ************************** Density Mixing Parameters **************************

 density-mixing scheme                          : Broyden
 max. length of mixing history                  :          7
 charge density mixing amplitude                : 0.8000
 cut-off energy for mixing                      :  700.0       eV

 *********************** Population Analysis Parameters ************************

 Population analysis with cutoff                :  3.000       A

                                      Unit Cell
        Real Lattice(A)                      Reciprocal Lattice(1/A)
   5.0054510   0.0000000   0.0000000        1.2552686  -0.0000000  -0.0000000
   0.0000000   5.0054510   0.0000000        0.0000000   1.2552686  -0.0000000
   0.0000000   0.0000000   5.0054510        0.0000000   0.0000000   1.2552686

                       Lattice parameters(A)       Cell Angles
                    a =    5.005451          alpha =   90.000000
                    b =    5.005451          beta  =   90.000000
                    c =    5.005451          gamma =   90.000000

                       Current cell volume =  125.409271       A**3

                                     Cell Contents
                         Total number of ions in cell =    2
                      Total number of species in cell =    1
                        Max number of any one species =    2

            x  Element    Atom        Fractional coordinates of atoms  x
            x            Number           u          v          w      x
            x  Ca           1         0.000000   0.000000   0.000000   x
            x  Ca           2         0.500000   0.500000   0.500000   x

                         No user defined ionic velocities

                                   Details of Species

                               Mass of species in AMU
                                    Ca   40.0780000

                          Electric Quadrupole Moment (Barn)
                                    Ca   -0.0408000 Isotope 43

                          Files used for pseudopotentials:
                                    Ca Pseudopotential generated on-the-fly

                              k-Points For BZ Sampling
                       MP grid size for SCF calculation is  8  8  8
                         Number of kpoints used =          20

             +  Number       Fractional coordinates        Weight  +
             +     1  -0.437500  -0.437500  -0.062500   0.0468750  +
             +     2  -0.437500   0.187500  -0.187500   0.0468750  +
             +     3  -0.437500   0.187500   0.437500   0.0468750  +
             +     4  -0.437500   0.437500  -0.312500   0.0468750  +
             +     5  -0.437500   0.437500   0.437500   0.0156250  +
             +     6  -0.312500  -0.312500  -0.312500   0.0156250  +
             +     7  -0.312500  -0.312500  -0.187500   0.0468750  +
             +     8  -0.312500  -0.312500  -0.062500   0.0468750  +
             +     9  -0.312500  -0.187500  -0.187500   0.0468750  +
             +    10  -0.187500  -0.187500  -0.187500   0.0156250  +
             +    11  -0.187500  -0.062500  -0.187500   0.0468750  +
             +    12  -0.062500   0.312500   0.437500   0.0937500  +
             +    13   0.062500  -0.437500  -0.187500   0.0937500  +
             +    14   0.062500  -0.437500  -0.062500   0.0468750  +
             +    15   0.062500  -0.312500  -0.187500   0.0937500  +
             +    16   0.062500  -0.312500  -0.062500   0.0468750  +
             +    17   0.062500  -0.187500  -0.062500   0.0468750  +
             +    18   0.062500   0.062500   0.062500   0.0156250  +
             +    19   0.312500  -0.312500   0.437500   0.0468750  +
             +    20   0.312500   0.187500  -0.437500   0.0937500  +

                               Symmetry and Constraints

                      Number of symmetry operations   =          48
                      Number of ionic constraints     =           3
                      Maximum deviation from symmetry = 0.612991E-15     ANG
               Point group of crystal =    32: Oh, m-3m, 4/m -3 2/m
           Set iprint > 1 for details on symmetry rotations/translations

                          Centre of mass is constrained
             Set iprint > 1 for details of linear ionic constraints

                         Number of cell constraints= 5
                         Cell constraints are:  1 1 1 0 0 0

                         External pressure/stress (GPa)
                          0.00000   0.00000   0.00000
                                    0.00000   0.00000
                                              0.00000

Final energy, E             =  -2006.920267094     eV
Final free energy (E-TS)    =  -2006.922163111     eV
(energies not corrected for finite basis set)

NB est. 0K energy (E-0.5TS)      =  -2006.921215103     eV

Writing model to Ca.check

 ***************** Symmetrised Forces *****************
 *            Cartesian components (eV/A)             *
 *                   x            y            z      *
 * Ca        1      0.00000      0.00000      0.00000 *
 * Ca        2      0.00000      0.00000      0.00000 *

[...]

Charge spilling parameter for spin component 1 = 2.66%

     Atomic Populations (Mulliken)
Species   Ion     s      p      d      f     Total  Charge (e)
  Ca       1     3.35   6.00   0.65   0.00  10.00    -0.00
  Ca       2     3.35   6.00   0.65   0.00  10.00     0.00

            Bond              Population      Length (A)

[...]

Writing analysis data to Ca.castep_bin

 A BibTeX formatted list of references used in this run has been written to
 Ca.bib

Initialisation time =      8.56 s
Calculation time    =     50.40 s
Finalisation time   =      1.81 s
Total time          =     60.77 s
 |      CCC   AA    SSS  TTTTT  EEEEE  PPPP        |
 |     C     A  A  S       T    E      P   P       |
 |     C     AAAA   SS     T    EEE    PPPP        |
 |     C     A  A     S    T    E      P           |
 |      CCC  A  A  SSS     T    EEEEE  P           |
 | Welcome to Academic Release CASTEP version 6.11 |
 | Ab Initio Total Energy Program                  |
 | Authors:                                        |
 | M. Segall, M. Probert, C. Pickard, P. Hasnip,   |
 | S. Clark, K. Refson, J. R. Yates, M. Payne      |
 | Contributors:                                   |
 | P. Lindan, P. Haynes, J. White, V. Milman,      |
 | N. Govind, M. Gibson, P. Tulip, V. Cocula,      |
 | B. Montanari, D. Quigley, M. Glover,            |
 | L. Bernasconi, A. Perlov, M. Plummer,           |
 | E. McNellis, J. Meyer, J. Gale, D. Jochym       |
 | J. Aarons, B. Walker, R. Gillen                 |
 | Copyright (c) 2000 - 2012                       |
 |     Distributed under the terms of an           |
 |     Agreement between the United Kingdom        |
 |     Car-Parrinello (UKCP) Consortium,           |
 |     Daresbury Laboratory and Accelrys, Inc.     |
 | Please cite                                     |
 |     "First principles methods using CASTEP"     |
 |         Zeitschrift fuer Kristallographie       |
 |           220(5-6) pp. 567-570 (2005)           |
 | S. J. Clark, M. D. Segall, C. J. Pickard,       |
 | P. J. Hasnip, M. J. Probert, K. Refson,         |
 | M. C. Payne                                     |
 |       in all publications arising from          |
 |              your use of CASTEP                 |

[...]

            Bond              Population      Length (A)

[...]

            Bond              Population      Length (A)
         Ca 1 -- Ca 2              0.17        2.94921

[...]

Initialisation time =      8.34 s
Calculation time    =      8.71 s
Finalisation time   =      1.11 s
Total time          =     18.16 s
 |      CCC   AA    SSS  TTTTT  EEEEE  PPPP        |
 |     C     A  A  S       T    E      P   P       |
 |     C     AAAA   SS     T    EEE    PPPP        |
 |     C     A  A     S    T    E      P           |
 |      CCC  A  A  SSS     T    EEEEE  P           |
 | Welcome to Academic Release CASTEP version 6.11 |
 | Ab Initio Total Energy Program                  |
 | Authors:                                        |
 | M. Segall, M. Probert, C. Pickard, P. Hasnip,   |
 | S. Clark, K. Refson, J. R. Yates, M. Payne      |
 | Contributors:                                   |
 | P. Lindan, P. Haynes, J. White, V. Milman,      |
 | N. Govind, M. Gibson, P. Tulip, V. Cocula,      |
 | B. Montanari, D. Quigley, M. Glover,            |
 | L. Bernasconi, A. Perlov, M. Plummer,           |
 | E. McNellis, J. Meyer, J. Gale, D. Jochym       |
 | J. Aarons, B. Walker, R. Gillen                 |
 | Copyright (c) 2000 - 2012                       |
 |     Distributed under the terms of an           |
 |     Agreement between the United Kingdom        |
 |     Car-Parrinello (UKCP) Consortium,           |
 |     Daresbury Laboratory and Accelrys, Inc.     |
 | Please cite                                     |
 |     "First principles methods using CASTEP"     |
 |         Zeitschrift fuer Kristallographie       |
 |           220(5-6) pp. 567-570 (2005)           |
 | S. J. Clark, M. D. Segall, C. J. Pickard,       |
 | P. J. Hasnip, M. J. Probert, K. Refson,         |
 | M. C. Payne                                     |
 |       in all publications arising from          |
 |              your use of CASTEP                 |

 Compiled for linux_x86_64_gfortran on Tue Jul 23 08:36:46 2013
 from source code version 17dc085fd1b9+ Castep61_branch 2013-03-13
 using intermediate optimisation, default FFTs and default LAPACK and BLAS.

 Atomic calculation performed for Ca: 1s2 2s2 2p6 3s2 3p6 4s2

 Converged in 54 iterations to an ae energy of -18512.579 eV

   | Pseudopotential Report - Date of generation 30-03-2015   |
   | Element: Ca Ionic charge: 10.00 Level of theory: PBE     |
   |               Reference Electronic Structure             |
   |         Orbital         Occupation         Energy        |
   |            3s              2.000           -1.731        |
   |            3p              6.000           -1.029        |
   |            4s              2.000           -0.138        |
   |                 Pseudopotential Definition               |
   |        Beta     l      e      Rc     scheme   norm       |
   |          1      0   -1.731   2.005     qc      0         |
   |          2      0   -0.138   2.005     qc      0         |
   |          3      1   -1.029   2.005     qc      0         |
   |          4      1    0.250   2.005     qc      0         |
   |          5      2    0.000   2.005     qc      0         |
   |          6      2    1.000   2.005     qc      0         |
   |         loc     3    0.000   1.601     pn      0         |
   | Augmentation charge Rinner = 1.401                       |
   | Partial core correction Rc = 1.401                       |
   | "3|1.6|2.0|1.4|7|9|10|30U:40U:31:32U=0U=1.0"             |
   |      Author: Chris J. Pickard, Cambridge University      |

[...]

 Calculation not parallelised.

 ************************************ Title ************************************

 ***************************** General Parameters ******************************

 output verbosity                               : normal  (1)
 write checkpoint data to                       : Ca.check
 type of calculation                            : single point energy
 stress calculation                             : off
 density difference calculation                 : off
 electron localisation func (ELF) calculation   : off
 Hirshfeld analysis                             : off
 unlimited duration calculation
 timing information                             : on
 write final potential to formatted file        : off
 write final density to formatted file          : off
 write BibTeX reference list                    : on

 output         length unit                     : A
 output           mass unit                     : amu
 output           time unit                     : ps
 output         charge unit                     : e
 output         energy unit                     : eV
 output          force unit                     : eV/A
 output       velocity unit                     : A/ps
 output       pressure unit                     : GPa
 output     inv_length unit                     : 1/A
 output      frequency unit                     : cm-1
 output force constant unit                     : eV/A**2
 output         volume unit                     : A**3
 output   IR intensity unit                     : (D/A)**2/amu
 output         dipole unit                     : D
 output         efield unit                     : eV/A/e
 output        entropy unit                     : J/mol/K

 wavefunctions paging                           : none
 data distribution                              : optimal for this architecture
 optimization strategy                          : maximize speed(+++)

 *********************** Exchange-Correlation Parameters ***********************

 using functional                               : Perdew Wang (1991)
 Divergence correction                          : off
 DFT+D: Semi-empirical dispersion correction    : off

 ************************* Pseudopotential Parameters **************************

 pseudopotential representation                 : reciprocal space
 <beta|phi> representation                      : reciprocal space

 **************************** Basis Set Parameters *****************************

 plane wave basis set cut-off                   :   700.0000   eV
 finite basis set correction                    : none

 **************************** Electronic Parameters ****************************

 number of  electrons                           :  20.00
 net charge of system                           :  0.000
 net spin   of system                           :  0.000
 number of  up  spins                           :  10.00
 number of down spins                           :  10.00
 treating system as non-spin-polarized
 number of bands                                :         14

 ********************* Electronic Minimization Parameters **********************

 Method: Treating system as metallic with density mixing treatment of electrons,
         and number of  SD  steps               :          1
         and number of  CG  steps               :          4

 total energy / atom convergence tol.           : 0.1000E-04   eV
 eigen-energy convergence tolerance             : 0.1000E-05   eV
 max force / atom convergence tol.              : ignored
 convergence tolerance window                   :          3   cycles
 max. number of SCF cycles                      :         30
 number of fixed-spin iterations                :         10
 smearing scheme                                : Gaussian
 smearing width                                 : 0.4000E-01   eV
 Fermi energy convergence tolerance             : 0.1000E-06   eV
 periodic dipole correction                     : NONE

 ************************** Density Mixing Parameters **************************

 density-mixing scheme                          : Broyden
 max. length of mixing history                  :          7
 charge density mixing amplitude                : 0.8000
 cut-off energy for mixing                      :  700.0       eV

 *********************** Population Analysis Parameters ************************

 Population analysis with cutoff                :  3.000       A

                                      Unit Cell
        Real Lattice(A)                      Reciprocal Lattice(1/A)
   2.6054510   0.0000000   0.0000000        2.4115538  -0.0000000  -0.0000000
   0.0000000   2.6054510   0.0000000        0.0000000   2.4115538  -0.0000000
   0.0000000   0.0000000   2.6054510        0.0000000   0.0000000   2.4115538

                       Lattice parameters(A)       Cell Angles
                    a =    2.605451          alpha =   90.000000
                    b =    2.605451          beta  =   90.000000
                    c =    2.605451          gamma =   90.000000

                       Current cell volume =   17.686778       A**3

                                     Cell Contents
                         Total number of ions in cell =    2
                      Total number of species in cell =    1
                        Max number of any one species =    2

            x  Element    Atom        Fractional coordinates of atoms  x
            x            Number           u          v          w      x
            x  Ca           1         0.000000   0.000000   0.000000   x
            x  Ca           2         0.500000   0.500000   0.500000   x

                         No user defined ionic velocities

                                   Details of Species

                               Mass of species in AMU
                                    Ca   40.0780000

                          Electric Quadrupole Moment (Barn)
                                    Ca   -0.0408000 Isotope 43

                          Files used for pseudopotentials:
                                    Ca Pseudopotential generated on-the-fly

                              k-Points For BZ Sampling
                       MP grid size for SCF calculation is  8  8  8
                         Number of kpoints used =          20

             +  Number       Fractional coordinates        Weight  +
             +     1  -0.437500  -0.312500  -0.312500   0.0468750  +
             +     2  -0.437500  -0.187500  -0.187500   0.0468750  +
             +     3  -0.312500  -0.312500  -0.187500   0.0468750  +
             +     4  -0.187500  -0.437500  -0.312500   0.0937500  +
             +     5  -0.187500  -0.312500  -0.187500   0.0468750  +
             +     6  -0.187500  -0.187500  -0.187500   0.0156250  +
             +     7  -0.187500  -0.062500  -0.187500   0.0468750  +
             +     8  -0.062500   0.437500   0.437500   0.0468750  +
             +     9   0.062500  -0.437500  -0.187500   0.0937500  +
             +    10   0.062500  -0.437500  -0.062500   0.0468750  +
             +    11   0.062500  -0.312500  -0.312500   0.0468750  +
             +    12   0.062500  -0.312500  -0.187500   0.0937500  +
             +    13   0.062500  -0.312500  -0.062500   0.0468750  +
             +    14   0.062500  -0.187500  -0.062500   0.0468750  +
             +    15   0.062500  -0.062500  -0.062500   0.0156250  +
             +    16   0.062500   0.312500  -0.437500   0.0937500  +
             +    17   0.187500   0.437500  -0.437500   0.0468750  +
             +    18   0.312500  -0.312500  -0.312500   0.0156250  +
             +    19   0.437500   0.437500  -0.312500   0.0468750  +
             +    20   0.437500   0.437500   0.437500   0.0156250  +

                               Symmetry and Constraints

                      Number of symmetry operations   =          48
                      Number of ionic constraints     =           3
                      Maximum deviation from symmetry = 0.319076E-15     ANG
               Point group of crystal =    32: Oh, m-3m, 4/m -3 2/m
           Set iprint > 1 for details on symmetry rotations/translations

                          Centre of mass is constrained
             Set iprint > 1 for details of linear ionic constraints

                         Number of cell constraints= 5
                         Cell constraints are:  1 1 1 0 0 0

                         External pressure/stress (GPa)
                          0.00000   0.00000   0.00000
                                    0.00000   0.00000
                                              0.00000

Final energy, E             =  -1991.689568122     eV
Final free energy (E-TS)    =  -1991.695853011     eV
(energies not corrected for finite basis set)

NB est. 0K energy (E-0.5TS)      =  -1991.692710566     eV

[...]

 ***************** Symmetrised Forces *****************
 *            Cartesian components (eV/A)             *
 *                   x            y            z      *
 * Ca        1      0.00000      0.00000      0.00000 *
 * Ca        2      0.00000      0.00000      0.00000 *

 Pseudo atomic calculation performed for Ca 3s2 3p6 4s2

 Converged in 19 iterations to a total energy of -1001.2130 eV

Charge spilling parameter for spin component 1 = 0.18%

     Atomic Populations (Mulliken)
Species   Ion     s      p      d      f     Total  Charge (e)
  Ca       1     1.99   5.73   2.28   0.00  10.00     0.00
  Ca       2     1.99   5.73   2.28   0.00  10.00    -0.00

            Bond              Population      Length (A)
         Ca 1 -- Ca 2            -15.48        2.25639

Writing model to Ca.check

Writing analysis data to Ca.castep_bin

 A BibTeX formatted list of references used in this run has been written to
 Ca.bib

Initialisation time =      8.42 s
Calculation time    =      6.56 s
Finalisation time   =      0.67 s
Total time          =     15.65 s