 Compiled for linux_x86_64_gfortran on Tue Jul 23 08:36:46 2013
 from source code version 17dc085fd1b9+ Castep61_branch 2013-03-13
 using intermediate optimisation, default FFTs and default LAPACK and BLAS.

 Atomic calculation performed for Ca: 1s2 2s2 2p6 3s2 3p6 4s2

 Converged in 54 iterations to an ae energy of -18512.579 eV

   | Pseudopotential Report - Date of generation 30-03-2015   |
   | Element: Ca Ionic charge: 10.00 Level of theory: PBE     |
   |               Reference Electronic Structure             |
   |         Orbital         Occupation         Energy        |
   |            3s              2.000           -1.731        |
   |            3p              6.000           -1.029        |
   |            4s              2.000           -0.138        |
   |                 Pseudopotential Definition               |
   |        Beta     l      e      Rc     scheme   norm       |
   |          1      0   -1.731   2.005     qc      0         |
   |          2      0   -0.138   2.005     qc      0         |
   |          3      1   -1.029   2.005     qc      0         |
   |          4      1    0.250   2.005     qc      0         |
   |          5      2    0.000   2.005     qc      0         |
   |          6      2    1.000   2.005     qc      0         |
   |         loc     3    0.000   1.601     pn      0         |
   | Augmentation charge Rinner = 1.401                       |
   | Partial core correction Rc = 1.401                       |
   | "3|1.6|2.0|1.4|7|9|10|30U:40U:31:32U=0U=1.0"             |
   |      Author: Chris J. Pickard, Cambridge University      |

 Pseudo atomic calculation performed for Ca 3s2 3p6 4s2

 Converged in 19 iterations to a total energy of -1001.2130 eV

 Calculation not parallelised.

 ************************************ Title ************************************

 ***************************** General Parameters ******************************

 output verbosity                               : normal  (1)
 write checkpoint data to                       : Ca.check
 type of calculation                            : single point energy
 stress calculation                             : off
 density difference calculation                 : off
 electron localisation func (ELF) calculation   : off
 Hirshfeld analysis                             : off
 unlimited duration calculation
 timing information                             : on
 write final potential to formatted file        : off
 write final density to formatted file          : off
 write BibTeX reference list                    : on

 output         length unit                     : A
 output           mass unit                     : amu
 output           time unit                     : ps
 output         charge unit                     : e
 output         energy unit                     : eV
 output          force unit                     : eV/A
 output       velocity unit                     : A/ps
 output       pressure unit                     : GPa
 output     inv_length unit                     : 1/A
 output      frequency unit                     : cm-1
 output force constant unit                     : eV/A**2
 output         volume unit                     : A**3
 output   IR intensity unit                     : (D/A)**2/amu
 output         dipole unit                     : D
 output         efield unit                     : eV/A/e
 output        entropy unit                     : J/mol/K

 wavefunctions paging                           : none
 data distribution                              : optimal for this architecture
 optimization strategy                          : maximize speed(+++)

 *********************** Exchange-Correlation Parameters ***********************

 using functional                               : Perdew Wang (1991)
 Divergence correction                          : off
 DFT+D: Semi-empirical dispersion correction    : off

 ************************* Pseudopotential Parameters **************************

 pseudopotential representation                 : reciprocal space
 <beta|phi> representation                      : reciprocal space

 **************************** Basis Set Parameters *****************************

 plane wave basis set cut-off                   :   700.0000   eV
 finite basis set correction                    : none

 **************************** Electronic Parameters ****************************

 number of  electrons                           :  40.00
 net charge of system                           :  0.000
 net spin   of system                           :  0.000
 number of  up  spins                           :  20.00
 number of down spins                           :  20.00
 treating system as non-spin-polarized
 number of bands                                :         24

 ********************* Electronic Minimization Parameters **********************

 Method: Treating system as metallic with density mixing treatment of electrons,
         and number of  SD  steps               :          1
         and number of  CG  steps               :          4

 total energy / atom convergence tol.           : 0.1000E-04   eV
 eigen-energy convergence tolerance             : 0.1000E-05   eV
 max force / atom convergence tol.              : ignored
 convergence tolerance window                   :          3   cycles
 max. number of SCF cycles                      :         30
 number of fixed-spin iterations                :         10
 smearing scheme                                : Gaussian
 smearing width                                 : 0.4000E-01   eV
 Fermi energy convergence tolerance             : 0.1000E-06   eV
 periodic dipole correction                     : NONE

 ************************** Density Mixing Parameters **************************

 density-mixing scheme                          : Broyden
 max. length of mixing history                  :          7
 charge density mixing amplitude                : 0.8000
 cut-off energy for mixing                      :  700.0       eV

 *********************** Population Analysis Parameters ************************

 Population analysis with cutoff                :  3.000       A

                                      Unit Cell
        Real Lattice(A)                      Reciprocal Lattice(1/A)
   9.1153560   0.0000000   0.0000000        0.6892968  -0.0000000  -0.0000000
   0.0000000   9.1153560   0.0000000        0.0000000   0.6892968  -0.0000000
   0.0000000   0.0000000   4.7461709        0.0000000   0.0000000   1.3238430

                       Lattice parameters(A)       Cell Angles
                    a =    9.115356          alpha =   90.000000
                    b =    9.115356          beta  =   90.000000
                    c =    4.746171          gamma =   90.000000

                       Current cell volume =  394.357985       A**3

                                     Cell Contents
                         Total number of ions in cell =    4
                      Total number of species in cell =    1
                        Max number of any one species =    4

            x  Element    Atom        Fractional coordinates of atoms  x
            x            Number           u          v          w      x
            x  Ca           1         0.000000   0.000000   0.000000   x
            x  Ca           2         0.500000   0.500000   0.500000   x
            x  Ca           3         0.500000   0.000000   0.750000   x
            x  Ca           4         0.000000   0.500000   0.250000   x

                         No user defined ionic velocities

                                   Details of Species

                               Mass of species in AMU
                                    Ca   40.0780000

                          Electric Quadrupole Moment (Barn)
                                    Ca   -0.0408000 Isotope 43

                          Files used for pseudopotentials:
                                    Ca Pseudopotential generated on-the-fly

                              k-Points For BZ Sampling
                       MP grid size for SCF calculation is  4  4  4
                         Number of kpoints used =           6

             +  Number       Fractional coordinates        Weight  +
             +     1  -0.375000  -0.375000  -0.125000   0.1250000  +
             +     2  -0.375000  -0.375000   0.375000   0.1250000  +
             +     3  -0.125000   0.375000   0.375000   0.2500000  +
             +     4   0.125000  -0.375000  -0.125000   0.2500000  +
             +     5   0.125000  -0.125000  -0.375000   0.1250000  +
             +     6   0.125000  -0.125000  -0.125000   0.1250000  +

                               Symmetry and Constraints

                      Number of symmetry operations   =          16
                      Number of ionic constraints     =           3
                      Maximum deviation from symmetry = 0.111627E-14     ANG
               Point group of crystal =    15: D4h, 4/mmm, 4/m 2/m 2/m
           Set iprint > 1 for details on symmetry rotations/translations

                          Centre of mass is constrained
             Set iprint > 1 for details of linear ionic constraints

                         Number of cell constraints= 4
                         Cell constraints are:  1 1 3 0 0 0

                         External pressure/stress (GPa)
                          0.00000   0.00000   0.00000
                                    0.00000   0.00000
                                              0.00000

Final energy, E             =  -4010.927953240     eV
Final free energy (E-TS)    =  -4010.935660840     eV
(energies not corrected for finite basis set)

NB est. 0K energy (E-0.5TS)      =  -4010.931807040     eV

Writing model to Ca.check

 ***************** Symmetrised Forces *****************
 *            Cartesian components (eV/A)             *
 *                   x            y            z      *
 * Ca        1      0.00000      0.00000     -0.00000 *
 * Ca        2      0.00000      0.00000     -0.00000 *
 * Ca        3      0.00000      0.00000     -0.00007 *
 * Ca        4      0.00000      0.00000      0.00007 *

[...]

Charge spilling parameter for spin component 1 = 3.58%

     Atomic Populations (Mulliken)
Species   Ion     s      p      d      f     Total  Charge (e)
  Ca       1     3.57   6.00   0.43   0.00  10.00     0.00
  Ca       2     3.57   6.00   0.43   0.00  10.00    -0.00
  Ca       3     3.57   6.00   0.43   0.00  10.00     0.00
  Ca       4     3.57   6.00   0.43   0.00  10.00     0.00

            Bond              Population      Length (A)

[...]

Writing analysis data to Ca.castep_bin

 A BibTeX formatted list of references used in this run has been written to
 Ca.bib

Initialisation time =      8.69 s
Calculation time    =    144.98 s
Finalisation time   =      3.74 s
Total time          =    157.40 s
 |      CCC   AA    SSS  TTTTT  EEEEE  PPPP        |
 |     C     A  A  S       T    E      P   P       |
 |     C     AAAA   SS     T    EEE    PPPP        |
 |     C     A  A     S    T    E      P           |
 |      CCC  A  A  SSS     T    EEEEE  P           |
 | Welcome to Academic Release CASTEP version 6.11 |
 | Ab Initio Total Energy Program                  |
 | Authors:                                        |
 | M. Segall, M. Probert, C. Pickard, P. Hasnip,   |
 | S. Clark, K. Refson, J. R. Yates, M. Payne      |
 | Contributors:                                   |
 | P. Lindan, P. Haynes, J. White, V. Milman,      |
 | N. Govind, M. Gibson, P. Tulip, V. Cocula,      |
 | B. Montanari, D. Quigley, M. Glover,            |
 | L. Bernasconi, A. Perlov, M. Plummer,           |
 | E. McNellis, J. Meyer, J. Gale, D. Jochym       |
 | J. Aarons, B. Walker, R. Gillen                 |
 | Copyright (c) 2000 - 2012                       |
 |     Distributed under the terms of an           |
 |     Agreement between the United Kingdom        |
 |     Car-Parrinello (UKCP) Consortium,           |
 |     Daresbury Laboratory and Accelrys, Inc.     |
 | Please cite                                     |
 |     "First principles methods using CASTEP"     |
 |         Zeitschrift fuer Kristallographie       |
 |           220(5-6) pp. 567-570 (2005)           |
 | S. J. Clark, M. D. Segall, C. J. Pickard,       |
 | P. J. Hasnip, M. J. Probert, K. Refson,         |
 | M. C. Payne                                     |
 |       in all publications arising from          |
 |              your use of CASTEP                 |

[...]

            Bond              Population      Length (A)

[...]

Initialisation time =      8.35 s
Calculation time    =     24.96 s
Finalisation time   =      1.38 s
Total time          =     34.68 s
 |      CCC   AA    SSS  TTTTT  EEEEE  PPPP        |
 |     C     A  A  S       T    E      P   P       |
 |     C     AAAA   SS     T    EEE    PPPP        |
 |     C     A  A     S    T    E      P           |
 |      CCC  A  A  SSS     T    EEEEE  P           |
 | Welcome to Academic Release CASTEP version 6.11 |
 | Ab Initio Total Energy Program                  |
 | Authors:                                        |
 | M. Segall, M. Probert, C. Pickard, P. Hasnip,   |
 | S. Clark, K. Refson, J. R. Yates, M. Payne      |
 | Contributors:                                   |
 | P. Lindan, P. Haynes, J. White, V. Milman,      |
 | N. Govind, M. Gibson, P. Tulip, V. Cocula,      |
 | B. Montanari, D. Quigley, M. Glover,            |
 | L. Bernasconi, A. Perlov, M. Plummer,           |
 | E. McNellis, J. Meyer, J. Gale, D. Jochym       |
 | J. Aarons, B. Walker, R. Gillen                 |
 | Copyright (c) 2000 - 2012                       |
 |     Distributed under the terms of an           |
 |     Agreement between the United Kingdom        |
 |     Car-Parrinello (UKCP) Consortium,           |
 |     Daresbury Laboratory and Accelrys, Inc.     |
 | Please cite                                     |
 |     "First principles methods using CASTEP"     |
 |         Zeitschrift fuer Kristallographie       |
 |           220(5-6) pp. 567-570 (2005)           |
 | S. J. Clark, M. D. Segall, C. J. Pickard,       |
 | P. J. Hasnip, M. J. Probert, K. Refson,         |
 | M. C. Payne                                     |
 |       in all publications arising from          |
 |              your use of CASTEP                 |

 Compiled for linux_x86_64_gfortran on Tue Jul 23 08:36:46 2013
 from source code version 17dc085fd1b9+ Castep61_branch 2013-03-13
 using intermediate optimisation, default FFTs and default LAPACK and BLAS.

 Atomic calculation performed for Ca: 1s2 2s2 2p6 3s2 3p6 4s2

 Converged in 54 iterations to an ae energy of -18512.579 eV

   | Pseudopotential Report - Date of generation 30-03-2015   |
   | Element: Ca Ionic charge: 10.00 Level of theory: PBE     |
   |               Reference Electronic Structure             |
   |         Orbital         Occupation         Energy        |
   |            3s              2.000           -1.731        |
   |            3p              6.000           -1.029        |
   |            4s              2.000           -0.138        |
   |                 Pseudopotential Definition               |
   |        Beta     l      e      Rc     scheme   norm       |
   |          1      0   -1.731   2.005     qc      0         |
   |          2      0   -0.138   2.005     qc      0         |
   |          3      1   -1.029   2.005     qc      0         |
   |          4      1    0.250   2.005     qc      0         |
   |          5      2    0.000   2.005     qc      0         |
   |          6      2    1.000   2.005     qc      0         |
   |         loc     3    0.000   1.601     pn      0         |
   | Augmentation charge Rinner = 1.401                       |
   | Partial core correction Rc = 1.401                       |
   | "3|1.6|2.0|1.4|7|9|10|30U:40U:31:32U=0U=1.0"             |
   |      Author: Chris J. Pickard, Cambridge University      |

[...]

 Calculation not parallelised.

 ************************************ Title ************************************

 ***************************** General Parameters ******************************

 output verbosity                               : normal  (1)
 write checkpoint data to                       : Ca.check
 type of calculation                            : single point energy
 stress calculation                             : off
 density difference calculation                 : off
 electron localisation func (ELF) calculation   : off
 Hirshfeld analysis                             : off
 unlimited duration calculation
 timing information                             : on
 write final potential to formatted file        : off
 write final density to formatted file          : off
 write BibTeX reference list                    : on

 output         length unit                     : A
 output           mass unit                     : amu
 output           time unit                     : ps
 output         charge unit                     : e
 output         energy unit                     : eV
 output          force unit                     : eV/A
 output       velocity unit                     : A/ps
 output       pressure unit                     : GPa
 output     inv_length unit                     : 1/A
 output      frequency unit                     : cm-1
 output force constant unit                     : eV/A**2
 output         volume unit                     : A**3
 output   IR intensity unit                     : (D/A)**2/amu
 output         dipole unit                     : D
 output         efield unit                     : eV/A/e
 output        entropy unit                     : J/mol/K

 wavefunctions paging                           : none
 data distribution                              : optimal for this architecture
 optimization strategy                          : maximize speed(+++)

 *********************** Exchange-Correlation Parameters ***********************

 using functional                               : Perdew Wang (1991)
 Divergence correction                          : off
 DFT+D: Semi-empirical dispersion correction    : off

 ************************* Pseudopotential Parameters **************************

 pseudopotential representation                 : reciprocal space
 <beta|phi> representation                      : reciprocal space

 **************************** Basis Set Parameters *****************************

 plane wave basis set cut-off                   :   700.0000   eV
 finite basis set correction                    : none

 **************************** Electronic Parameters ****************************

 number of  electrons                           :  40.00
 net charge of system                           :  0.000
 net spin   of system                           :  0.000
 number of  up  spins                           :  20.00
 number of down spins                           :  20.00
 treating system as non-spin-polarized
 number of bands                                :         24

 ********************* Electronic Minimization Parameters **********************

 Method: Treating system as metallic with density mixing treatment of electrons,
         and number of  SD  steps               :          1
         and number of  CG  steps               :          4

 total energy / atom convergence tol.           : 0.1000E-04   eV
 eigen-energy convergence tolerance             : 0.1000E-05   eV
 max force / atom convergence tol.              : ignored
 convergence tolerance window                   :          3   cycles
 max. number of SCF cycles                      :         30
 number of fixed-spin iterations                :         10
 smearing scheme                                : Gaussian
 smearing width                                 : 0.4000E-01   eV
 Fermi energy convergence tolerance             : 0.1000E-06   eV
 periodic dipole correction                     : NONE

 ************************** Density Mixing Parameters **************************

 density-mixing scheme                          : Broyden
 max. length of mixing history                  :          7
 charge density mixing amplitude                : 0.8000
 cut-off energy for mixing                      :  700.0       eV

 *********************** Population Analysis Parameters ************************

 Population analysis with cutoff                :  3.000       A

                                      Unit Cell
        Real Lattice(A)                      Reciprocal Lattice(1/A)
   5.7153560   0.0000000   0.0000000        1.0993515  -0.0000000  -0.0000000
   0.0000000   5.7153560   0.0000000        0.0000000   1.0993515  -0.0000000
   0.0000000   0.0000000   2.9758636        0.0000000   0.0000000   2.1113822

                       Lattice parameters(A)       Cell Angles
                    a =    5.715356          alpha =   90.000000
                    b =    5.715356          beta  =   90.000000
                    c =    2.975864          gamma =   90.000000

                       Current cell volume =   97.207460       A**3

                                     Cell Contents
                         Total number of ions in cell =    4
                      Total number of species in cell =    1
                        Max number of any one species =    4

            x  Element    Atom        Fractional coordinates of atoms  x
            x            Number           u          v          w      x
            x  Ca           1         0.000000   0.000000   0.000000   x
            x  Ca           2         0.500000   0.500000   0.500000   x
            x  Ca           3         0.500000   0.000000   0.750000   x
            x  Ca           4         0.000000   0.500000   0.250000   x

                         No user defined ionic velocities

                                   Details of Species

                               Mass of species in AMU
                                    Ca   40.0780000

                          Electric Quadrupole Moment (Barn)
                                    Ca   -0.0408000 Isotope 43

                          Files used for pseudopotentials:
                                    Ca Pseudopotential generated on-the-fly

                              k-Points For BZ Sampling
                       MP grid size for SCF calculation is  4  4  4
                         Number of kpoints used =           6

             +  Number       Fractional coordinates        Weight  +
             +     1  -0.375000  -0.375000  -0.125000   0.1250000  +
             +     2  -0.375000   0.125000  -0.375000   0.2500000  +
             +     3  -0.375000   0.375000   0.375000   0.1250000  +
             +     4   0.125000  -0.375000  -0.125000   0.2500000  +
             +     5   0.125000  -0.125000  -0.375000   0.1250000  +
             +     6   0.125000  -0.125000  -0.125000   0.1250000  +

                               Symmetry and Constraints

                      Number of symmetry operations   =          16
                      Number of ionic constraints     =           3
                      Maximum deviation from symmetry = 0.699906E-15     ANG
               Point group of crystal =    15: D4h, 4/mmm, 4/m 2/m 2/m
           Set iprint > 1 for details on symmetry rotations/translations

                          Centre of mass is constrained
             Set iprint > 1 for details of linear ionic constraints

                         Number of cell constraints= 4
                         Cell constraints are:  1 1 3 0 0 0

                         External pressure/stress (GPa)
                          0.00000   0.00000   0.00000
                                    0.00000   0.00000
                                              0.00000

Final energy, E             =  -4011.514629401     eV
Final free energy (E-TS)    =  -4011.514629401     eV
(energies not corrected for finite basis set)

NB est. 0K energy (E-0.5TS)      =  -4011.514629401     eV

[...]

 ***************** Symmetrised Forces *****************
 *            Cartesian components (eV/A)             *
 *                   x            y            z      *
 * Ca        1      0.00000      0.00000      0.00000 *
 * Ca        2     -0.00000      0.00000     -0.00000 *
 * Ca        3      0.00000      0.00000      0.00125 *
 * Ca        4     -0.00000      0.00000     -0.00125 *

 Pseudo atomic calculation performed for Ca 3s2 3p6 4s2

 Converged in 19 iterations to a total energy of -1001.2130 eV

Charge spilling parameter for spin component 1 = 0.38%

     Atomic Populations (Mulliken)
Species   Ion     s      p      d      f     Total  Charge (e)
  Ca       1     2.83   5.97   1.19   0.00  10.00    -0.00
  Ca       2     2.83   5.97   1.19   0.00  10.00     0.00
  Ca       3     2.83   5.97   1.19   0.00  10.00     0.00
  Ca       4     2.83   5.97   1.19   0.00  10.00     0.00

            Bond              Population      Length (A)
         Ca 2 -- Ca 4              0.26        2.95293
         Ca 2 -- Ca 3              0.26        2.95293
         Ca 1 -- Ca 4              0.26        2.95293
         Ca 1 -- Ca 3              0.26        2.95293

Writing model to Ca.check

Writing analysis data to Ca.castep_bin

 A BibTeX formatted list of references used in this run has been written to
 Ca.bib

Initialisation time =      8.24 s
Calculation time    =     24.19 s
Finalisation time   =      1.31 s
Total time          =     33.75 s