 Compiled for linux_x86_64_gfortran on Tue Jul 23 08:36:46 2013
 from source code version 17dc085fd1b9+ Castep61_branch 2013-03-13
 using intermediate optimisation, default FFTs and default LAPACK and BLAS.

 Atomic calculation performed for Ca: 1s2 2s2 2p6 3s2 3p6 4s2

 Converged in 54 iterations to an ae energy of -18512.579 eV

   | Pseudopotential Report - Date of generation 26-03-2015   |
   | Element: Ca Ionic charge: 10.00 Level of theory: PBE     |
   |               Reference Electronic Structure             |
   |         Orbital         Occupation         Energy        |
   |            3s              2.000           -1.731        |
   |            3p              6.000           -1.029        |
   |            4s              2.000           -0.138        |
   |                 Pseudopotential Definition               |
   |        Beta     l      e      Rc     scheme   norm       |
   |          1      0   -1.731   2.005     qc      0         |
   |          2      0   -0.138   2.005     qc      0         |
   |          3      1   -1.029   2.005     qc      0         |
   |          4      1    0.250   2.005     qc      0         |
   |          5      2    0.000   2.005     qc      0         |
   |          6      2    1.000   2.005     qc      0         |
   |         loc     3    0.000   1.601     pn      0         |
   | Augmentation charge Rinner = 1.401                       |
   | Partial core correction Rc = 1.401                       |
   | "3|1.6|2.0|1.4|7|9|10|30U:40U:31:32U=0U=1.0"             |
   |      Author: Chris J. Pickard, Cambridge University      |

 Pseudo atomic calculation performed for Ca 3s2 3p6 4s2

 Converged in 19 iterations to a total energy of -1001.1711 eV

 Calculation not parallelised.

 ************************************ Title ************************************

 ***************************** General Parameters ******************************

 output verbosity                               : normal  (1)
 write checkpoint data to                       : Ca.check
 type of calculation                            : Thermodynamics calculation
 stress calculation                             : off
 density difference calculation                 : off
 electron localisation func (ELF) calculation   : off
 Hirshfeld analysis                             : off
 unlimited duration calculation
 timing information                             : on
 write final potential to formatted file        : off
 write final density to formatted file          : off
 write BibTeX reference list                    : on

 output         length unit                     : A
 output           mass unit                     : amu
 output           time unit                     : ps
 output         charge unit                     : e
 output         energy unit                     : eV
 output          force unit                     : eV/A
 output       velocity unit                     : A/ps
 output       pressure unit                     : GPa
 output     inv_length unit                     : 1/A
 output      frequency unit                     : cm-1
 output force constant unit                     : eV/A**2
 output         volume unit                     : A**3
 output   IR intensity unit                     : (D/A)**2/amu
 output         dipole unit                     : D
 output         efield unit                     : eV/A/e
 output        entropy unit                     : J/mol/K

 wavefunctions paging                           : none
 data distribution                              : optimal for this architecture
 optimization strategy                          : maximize speed(+++)

 *********************** Exchange-Correlation Parameters ***********************

 using functional                               : Perdew Wang (1991)
 Divergence correction                          : off
 DFT+D: Semi-empirical dispersion correction    : off

 ************************* Pseudopotential Parameters **************************

 pseudopotential representation                 : reciprocal space
 <beta|phi> representation                      : reciprocal space

 **************************** Basis Set Parameters *****************************

 plane wave basis set cut-off                   :   400.0000   eV
 finite basis set correction                    : none

 **************************** Electronic Parameters ****************************

 number of  electrons                           :  40.00
 net charge of system                           :  0.000
 net spin   of system                           :  0.000
 number of  up  spins                           :  20.00
 number of down spins                           :  20.00
 treating system as non-spin-polarized
 number of bands                                :         24

 ********************* Electronic Minimization Parameters **********************

 Method: Treating system as metallic with density mixing treatment of electrons,
         and number of  SD  steps               :          1
         and number of  CG  steps               :          4

 total energy / atom convergence tol.           : 0.1000E-04   eV
 eigen-energy convergence tolerance             : 0.1000E-05   eV
 max force / atom convergence tol.              : ignored
 convergence tolerance window                   :          3   cycles
 max. number of SCF cycles                      :         30
 number of fixed-spin iterations                :         10
 smearing scheme                                : Gaussian
 smearing width                                 : 0.4000E-01   eV
 Fermi energy convergence tolerance             : 0.1000E-06   eV
 periodic dipole correction                     : NONE

 ************************** Density Mixing Parameters **************************

 density-mixing scheme                          : Broyden
 max. length of mixing history                  :          7
 charge density mixing amplitude                : 0.8000
 cut-off energy for mixing                      :  400.0       eV

 *********************** Population Analysis Parameters ************************

 Population analysis with cutoff                :  3.000       A

 ****************************** Phonon Parameters ******************************

 phonon calculation method                      : finite displacement
 finite displacement amplitude                  : 0.5292E-02   A
 fine phonon calculation method                 : supercell
 non-periodic force constant method             : Weighted cumulant sum
 LO/TO splitting term                           : not included
 acoustic phonon sum rule                       : correct D(q) in recip-space
 Born effective charges                         : not calculated
 Raman intensities                              : not calculated
 phonon k-points                                : use reduced set
 phonon DOS                                     : not calculated
 no timed backups

 ************************** Thermodynamics Parameters **************************
 Helmholtz free energy                          : calculated
 Initial temperature                            :  0.000       K
 Final temperature                              :  300.0       K
 Spacing between temperature values             :  3.000       K
 Number of temperature values                   :        102
 band convergence tolerance                     : 0.1000E-05   eV

                                      Unit Cell
        Real Lattice(A)                      Reciprocal Lattice(1/A)
   6.8653560   0.0000000   0.0000000        0.9152017  -0.0000000  -0.0000000
   0.0000000   6.8653560   0.0000000        0.0000000   0.9152017  -0.0000000
   0.0000000   0.0000000   3.5746440        0.0000000   0.0000000   1.7577094

                       Lattice parameters(A)       Cell Angles
                    a =    6.865356          alpha =   90.000000
                    b =    6.865356          beta  =   90.000000
                    c =    3.574644          gamma =   90.000000

                       Current cell volume =  168.484100       A**3

                                     Cell Contents
                         Total number of ions in cell =    4
                      Total number of species in cell =    1
                        Max number of any one species =    4

            x  Element    Atom        Fractional coordinates of atoms  x
            x            Number           u          v          w      x
            x  Ca           1         0.000000   0.000000   0.000000   x
            x  Ca           2         0.500000   0.500000   0.500000   x
            x  Ca           3         0.500000   0.000000   0.750000   x
            x  Ca           4         0.000000   0.500000   0.250000   x

                         No user defined ionic velocities

                                   Details of Species

                               Mass of species in AMU
                                    Ca   40.0780000

                          Electric Quadrupole Moment (Barn)
                                    Ca   -0.0408000 Isotope 43

                          Files used for pseudopotentials:
                                    Ca Pseudopotential generated on-the-fly

                              k-Points For BZ Sampling
                       MP grid size for SCF calculation is  2  2  2
                         Number of kpoints used =           1

             +  Number       Fractional coordinates        Weight  +
             +     1  -0.250000  -0.250000  -0.250000   1.0000000  +

                               Symmetry and Constraints

                      Number of symmetry operations   =          16
                      Number of ionic constraints     =           3
                      Maximum deviation from symmetry = 0.840736E-15     ANG
               Point group of crystal =    15: D4h, 4/mmm, 4/m 2/m 2/m
           Set iprint > 1 for details on symmetry rotations/translations

                          Centre of mass is constrained
             Set iprint > 1 for details of linear ionic constraints

                         Number of cell constraints= 4
                         Cell constraints are:  1 1 3 0 0 0

                         External pressure/stress (GPa)
                          0.00000   0.00000   0.00000
                                    0.00000   0.00000
                                              0.00000

Final energy, E             =  -4014.669614764     eV
Final free energy (E-TS)    =  -4014.669614764     eV
(energies not corrected for finite basis set)

NB est. 0K energy (E-0.5TS)      =  -4014.669614764     eV

Writing model to Ca.check

              The requested supercell has been generated

[...]

                         External pressure/stress (GPa)
                          0.00000   0.00000   0.00000
                                    0.00000   0.00000
                                              0.00000
  | Requirements will fluctuate during execution and may exceed these estimates |
------------------------------------------------------------------------ <-- SCF
[...]
Total time          =   1138.39 s
 |      CCC   AA    SSS  TTTTT  EEEEE  PPPP        |
 |     C     A  A  S       T    E      P   P       |
 |     C     AAAA   SS     T    EEE    PPPP        |
 |     C     A  A     S    T    E      P           |
 |      CCC  A  A  SSS     T    EEEEE  P           |
 | Welcome to Academic Release CASTEP version 6.11 |
 | Ab Initio Total Energy Program                  |
 | Authors:                                        |
 | M. Segall, M. Probert, C. Pickard, P. Hasnip,   |
 | S. Clark, K. Refson, J. R. Yates, M. Payne      |
 | Contributors:                                   |
 | P. Lindan, P. Haynes, J. White, V. Milman,      |
 | N. Govind, M. Gibson, P. Tulip, V. Cocula,      |
 | B. Montanari, D. Quigley, M. Glover,            |
 | L. Bernasconi, A. Perlov, M. Plummer,           |
 | E. McNellis, J. Meyer, J. Gale, D. Jochym       |
 | J. Aarons, B. Walker, R. Gillen                 |
 | Copyright (c) 2000 - 2012                       |
 |     Distributed under the terms of an           |
 |     Agreement between the United Kingdom        |
 |     Car-Parrinello (UKCP) Consortium,           |
 |     Daresbury Laboratory and Accelrys, Inc.     |
 | Please cite                                     |
 |     "First principles methods using CASTEP"     |
 |         Zeitschrift fuer Kristallographie       |
 |           220(5-6) pp. 567-570 (2005)           |
 | S. J. Clark, M. D. Segall, C. J. Pickard,       |
 | P. J. Hasnip, M. J. Probert, K. Refson,         |
 | M. C. Payne                                     |
 |       in all publications arising from          |
 |              your use of CASTEP                 |

 Compiled for linux_x86_64_gfortran on Tue Jul 23 08:36:46 2013
 from source code version 17dc085fd1b9+ Castep61_branch 2013-03-13
 using intermediate optimisation, default FFTs and default LAPACK and BLAS.

 Atomic calculation performed for Ca: 1s2 2s2 2p6 3s2 3p6 4s2

 Converged in 54 iterations to an ae energy of -18512.579 eV

   | Pseudopotential Report - Date of generation 27-03-2015   |
   | Element: Ca Ionic charge: 10.00 Level of theory: PBE     |
   |               Reference Electronic Structure             |
   |         Orbital         Occupation         Energy        |
   |            3s              2.000           -1.731        |
   |            3p              6.000           -1.029        |
   |            4s              2.000           -0.138        |
   |                 Pseudopotential Definition               |
   |        Beta     l      e      Rc     scheme   norm       |
   |          1      0   -1.731   2.005     qc      0         |
   |          2      0   -0.138   2.005     qc      0         |
   |          3      1   -1.029   2.005     qc      0         |
   |          4      1    0.250   2.005     qc      0         |
   |          5      2    0.000   2.005     qc      0         |
   |          6      2    1.000   2.005     qc      0         |
   |         loc     3    0.000   1.601     pn      0         |
   | Augmentation charge Rinner = 1.401                       |
   | Partial core correction Rc = 1.401                       |
   | "3|1.6|2.0|1.4|7|9|10|30U:40U:31:32U=0U=1.0"             |
   |      Author: Chris J. Pickard, Cambridge University      |

 Pseudo atomic calculation performed for Ca 3s2 3p6 4s2

 Converged in 19 iterations to a total energy of -1001.1711 eV

 Calculation not parallelised.

 ************************************ Title ************************************

 ***************************** General Parameters ******************************

 output verbosity                               : normal  (1)
 write checkpoint data to                       : Ca.check
 type of calculation                            : Thermodynamics calculation
 stress calculation                             : off
 density difference calculation                 : off
 electron localisation func (ELF) calculation   : off
 Hirshfeld analysis                             : off
 unlimited duration calculation
 timing information                             : on
 write final potential to formatted file        : off
 write final density to formatted file          : off
 write BibTeX reference list                    : on

 output         length unit                     : A
 output           mass unit                     : amu
 output           time unit                     : ps
 output         charge unit                     : e
 output         energy unit                     : eV
 output          force unit                     : eV/A
 output       velocity unit                     : A/ps
 output       pressure unit                     : GPa
 output     inv_length unit                     : 1/A
 output      frequency unit                     : cm-1
 output force constant unit                     : eV/A**2
 output         volume unit                     : A**3
 output   IR intensity unit                     : (D/A)**2/amu
 output         dipole unit                     : D
 output         efield unit                     : eV/A/e
 output        entropy unit                     : J/mol/K

 wavefunctions paging                           : none
 data distribution                              : optimal for this architecture
 optimization strategy                          : maximize speed(+++)

 *********************** Exchange-Correlation Parameters ***********************

 using functional                               : Perdew Wang (1991)
 Divergence correction                          : off
 DFT+D: Semi-empirical dispersion correction    : off

 ************************* Pseudopotential Parameters **************************

 pseudopotential representation                 : reciprocal space
 <beta|phi> representation                      : reciprocal space

 **************************** Basis Set Parameters *****************************

 plane wave basis set cut-off                   :   400.0000   eV
 finite basis set correction                    : none

 **************************** Electronic Parameters ****************************

 number of  electrons                           :  40.00
 net charge of system                           :  0.000
 net spin   of system                           :  0.000
 number of  up  spins                           :  20.00
 number of down spins                           :  20.00
 treating system as non-spin-polarized
 number of bands                                :         24

 ********************* Electronic Minimization Parameters **********************

 Method: Treating system as metallic with density mixing treatment of electrons,
         and number of  SD  steps               :          1
         and number of  CG  steps               :          4

 total energy / atom convergence tol.           : 0.1000E-04   eV
 eigen-energy convergence tolerance             : 0.1000E-05   eV
 max force / atom convergence tol.              : ignored
 convergence tolerance window                   :          3   cycles
 max. number of SCF cycles                      :         30
 number of fixed-spin iterations                :         10
 smearing scheme                                : Gaussian
 smearing width                                 : 0.4000E-01   eV
 Fermi energy convergence tolerance             : 0.1000E-06   eV
 periodic dipole correction                     : NONE

 ************************** Density Mixing Parameters **************************

 density-mixing scheme                          : Broyden
 max. length of mixing history                  :          7
 charge density mixing amplitude                : 0.8000
 cut-off energy for mixing                      :  400.0       eV

 *********************** Population Analysis Parameters ************************

 Population analysis with cutoff                :  3.000       A

 ****************************** Phonon Parameters ******************************

 phonon calculation method                      : finite displacement
 finite displacement amplitude                  : 0.5292E-02   A
 fine phonon calculation method                 : supercell
 non-periodic force constant method             : Weighted cumulant sum
 LO/TO splitting term                           : not included
 acoustic phonon sum rule                       : correct D(q) in recip-space
 Born effective charges                         : not calculated
 Raman intensities                              : not calculated
 phonon k-points                                : use reduced set
 phonon DOS                                     : not calculated
 no timed backups

 ************************** Thermodynamics Parameters **************************
 Helmholtz free energy                          : calculated
 Initial temperature                            :  0.000       K
 Final temperature                              :  300.0       K
 Spacing between temperature values             :  3.000       K
 Number of temperature values                   :        102
 band convergence tolerance                     : 0.1000E-05   eV

[...]

                         External pressure/stress (GPa)
                          0.00000   0.00000   0.00000
                                    0.00000   0.00000
                                              0.00000

Final energy, E             =  -3984.483682263     eV
Final free energy (E-TS)    =  -3984.488519210     eV
(energies not corrected for finite basis set)

[...]

              The requested supercell has been generated

                                      Unit Cell
        Real Lattice(A)                      Reciprocal Lattice(1/A)
   8.3307120   0.0000000   0.0000000        0.7542195  -0.0000000  -0.0000000
   0.0000000   8.3307120   0.0000000        0.0000000   0.7542195  -0.0000000
   0.0000000   0.0000000   4.3376235        0.0000000   0.0000000   1.4485317

                       Lattice parameters(A)       Cell Angles
                    a =    8.330712          alpha =   90.000000
                    b =    8.330712          beta  =   90.000000
                    c =    4.337624          gamma =   90.000000

                       Current cell volume =  301.034379       A**3

                                     Cell Contents
                         Total number of ions in cell =   32
                      Total number of species in cell =    1
                        Max number of any one species =   32

            x  Element    Atom        Fractional coordinates of atoms  x
            x            Number           u          v          w      x
            x  Ca           1         0.000000   0.000000   0.000000   x
            x  Ca           2         0.250000   0.250000   0.250000   x
            x  Ca           3         0.250000   0.000000   0.375000   x
            x  Ca           4         0.000000   0.250000   0.125000   x
            x  Ca           5         0.500000   0.000000   0.000000   x
            x  Ca           6         0.750000   0.250000   0.250000   x
            x  Ca           7         0.750000   0.000000   0.375000   x
            x  Ca           8         0.500000   0.250000   0.125000   x
            x  Ca           9         0.000000   0.500000   0.000000   x
            x  Ca          10         0.250000   0.750000   0.250000   x
            x  Ca          11         0.250000   0.500000   0.375000   x
            x  Ca          12         0.000000   0.750000   0.125000   x
            x  Ca          13         0.500000   0.500000   0.000000   x
            x  Ca          14         0.750000   0.750000   0.250000   x
            x  Ca          15         0.750000   0.500000   0.375000   x
            x  Ca          16         0.500000   0.750000   0.125000   x
            x  Ca          17         0.000000   0.000000   0.500000   x
            x  Ca          18         0.250000   0.250000   0.750000   x
            x  Ca          19         0.250000   0.000000   0.875000   x
            x  Ca          20         0.000000   0.250000   0.625000   x
            x  Ca          21         0.500000   0.000000   0.500000   x
            x  Ca          22         0.750000   0.250000   0.750000   x
            x  Ca          23         0.750000   0.000000   0.875000   x
            x  Ca          24         0.500000   0.250000   0.625000   x
            x  Ca          25         0.000000   0.500000   0.500000   x
            x  Ca          26         0.250000   0.750000   0.750000   x
            x  Ca          27         0.250000   0.500000   0.875000   x
            x  Ca          28         0.000000   0.750000   0.625000   x
            x  Ca          29         0.500000   0.500000   0.500000   x
            x  Ca          30         0.750000   0.750000   0.750000   x
            x  Ca          31         0.750000   0.500000   0.875000   x
            x  Ca          32         0.500000   0.750000   0.625000   x

                         No user defined ionic velocities

                                   Details of Species

                               Mass of species in AMU
                                    Ca   40.0780000

                          Electric Quadrupole Moment (Barn)
                                    Ca   -0.0408000 Isotope 43

                          Files used for pseudopotentials:
                                    Ca Pseudopotential generated on-the-fly

                              k-Points For BZ Sampling
                       MP grid size for SCF calculation is  1  1  1
                         Number of kpoints used =           1

             +  Number       Fractional coordinates        Weight  +
             +     1  -0.500000  -0.500000  -0.500000   1.0000000  +

                               Symmetry and Constraints

                      Number of symmetry operations   =         128
                      Number of ionic constraints     =           3
                      Maximum deviation from symmetry = 0.510092E-15     ANG
               Point group of crystal =    15: D4h, 4/mmm, 4/m 2/m 2/m
           Set iprint > 1 for details on symmetry rotations/translations

                          Centre of mass is constrained
             Set iprint > 1 for details of linear ionic constraints

                         Number of cell constraints= 4
                         Cell constraints are:  1 1 3 0 0 0

                         External pressure/stress (GPa)
                          0.00000   0.00000   0.00000
                                    0.00000   0.00000
                                              0.00000
  | Requirements will fluctuate during execution and may exceed these estimates |
------------------------------------------------------------------------ <-- SCF
SCF loop      Energy           Fermi           Energy gain       Timer   <-- SCF
                               energy          per atom          (sec)   <-- SCF
------------------------------------------------------------------------ <-- SCF
Initial  -2.86957875E+004  0.00000000E+000                        12.58  <-- SCF
      1  -3.10749783E+004  2.31761589E+001   7.43497137E+001      34.53  <-- SCF
      2  -3.18560580E+004  2.01931745E+001   2.44087400E+001      55.25  <-- SCF
      3  -3.18752686E+004  1.99873820E+001   6.00331243E-001      74.76  <-- SCF
      4  -3.18758725E+004  1.99390347E+001   1.88713608E-002      94.81  <-- SCF
      5  -3.18759414E+004  1.99602176E+001   2.15412680E-003     115.39  <-- SCF
      6  -3.18759236E+004  1.99593613E+001  -5.56226250E-004     135.18  <-- SCF
      7  -3.18759081E+004  1.99575522E+001  -4.84686641E-004     153.74  <-- SCF
      8  -3.18759082E+004  1.99575445E+001   3.55334937E-006     166.30  <-- SCF
      9  -3.18759082E+004  1.99575194E+001   1.33342804E-008     177.43  <-- SCF
------------------------------------------------------------------------ <-- SCF
 Perturbation    1 (of    6): Ca    1 X at q=( 0.000, 0.000, 0.000):    178.61s
  | Requirements will fluctuate during execution and may exceed these estimates |
 *Warning* max. SCF cycles performed but system has not reached the groundstate.

Current total energy, E     =  -31879.99089948     eV
Current free energy (E-TS)  =  -31880.06452384     eV
(energies not corrected for finite basis set)

[...]

 *Warning* max. SCF cycles performed but system has not reached the groundstate.

Current total energy, E     =  -31882.27625198     eV
Current free energy (E-TS)  =  -31882.27662107     eV
(energies not corrected for finite basis set)

NB est. 0K energy (E-0.5TS)      =  -31882.27643652     eV

 SCF convergence of perturbed structure failed. Aborting calculation.
 Writing checkpoint file

Writing model to Ca.check